37

C     -3.226233    2.010722    2.513349
O     -3.172308    2.055299    1.091534
C     -2.349336    1.143733    0.484393
C     -1.572832    0.176741    1.117578
C     -0.770296   -0.696978    0.362975
C     -0.726234   -0.630342   -1.040115
C      0.142810   -1.549103   -1.893143
C      1.459957   -0.870093   -2.284938
O      2.368473   -0.709908   -1.187678
C      2.567778   -1.839568   -0.442092
C      3.693440   -1.835477    0.382473
C      3.959393   -2.941244    1.182495
O      5.051817   -2.982040    1.998077
C      3.115389   -4.044700    1.174555
C      1.981969   -4.041367    0.361018
C      1.692240   -2.930619   -0.444595
C      0.458366   -2.931633   -1.304595
C     -1.506740    0.354000   -1.655307
O     -1.499923    0.490764   -3.018739
C     -2.303645    1.219728   -0.906732
O     -3.045120    2.158755   -1.582026
H     -3.619371    1.050455    2.863169
H     -3.915019    2.793401    2.845578
H     -2.245458    2.221685    2.952278
H     -1.556445    0.070035    2.197418
H     -0.170929   -1.424112    0.905858
H     -0.430861   -1.746114   -2.809677
H      1.970304   -1.446233   -3.068362
H      1.281492    0.128070   -2.700231
H      4.345977   -0.968767    0.381349
H      5.547205   -2.153500    1.887804
H      3.337590   -4.903210    1.801943
H      1.322769   -4.906364    0.363889
H      0.650986   -3.626818   -2.133063
H     -0.400828   -3.324676   -0.747732
H     -2.113586    1.234898   -3.189387
H     -3.512959    2.649983   -0.876607
