211

C      7.142297   -4.766033   -3.645941
C      7.496425   -4.312034   -2.238749
C      6.715439   -5.041860   -1.142983
C      5.189957   -4.924028   -1.219186
C      4.690028   -3.480147   -1.171043
C      3.161804   -3.418719   -1.121944
C      2.678826   -1.969912   -1.091887
C      1.153499   -1.876152   -1.063236
C      0.712047   -0.417459   -1.044974
C     -0.786592   -0.273641   -1.001204
O     -1.589548   -1.002040   -1.575388
O     -1.116846    0.834038   -0.280397
C     -2.526343    1.038445   -0.085761
C     -2.817844    1.863124    1.173624
O     -2.160294    1.200792    2.257923
C     -2.334801    1.782324    3.556294
C     -1.649116    0.824626    4.571141
C     -2.497270    0.626636    5.824650
O     -0.360224    1.288022    5.026547
C      0.459129    1.816358    3.984993
O      0.654199    0.878181    2.929543
C      1.716545   -0.090408    3.059936
C      1.660049   -0.927311    4.355913
O      0.871868   -2.112168    4.131433
C      3.049339   -1.328482    4.860000
O      2.924425   -2.434152    5.760415
C      4.004527   -1.616385    3.702880
C      3.650669   -2.840009    2.860366
O      4.185262   -0.490787    2.850471
C      3.139303    0.487718    2.785310
O      3.125759    1.103406    1.482762
C      4.409808    1.328002    0.869835
C      4.113809    1.703016   -0.597495
C      5.118642    1.106014   -1.590105
C      4.708771    1.404626   -3.034539
C      5.727070    0.916771   -4.067178
C      5.892024   -0.595164   -4.091500
C      5.203980    2.415486    1.622889
C      6.600167    2.675584    1.043945
C      7.508813    3.519225    1.949078
C      7.536885    5.020580    1.631083
C      6.208737    5.766442    1.755090
C      5.627151    5.727789    3.168353
C      4.232086    6.352954    3.212574
C      3.545356    6.075298    4.556891
C      2.029324    5.934620    4.423793
C      1.644130    4.619350    3.781314
O      2.375719    3.925458    3.092166
O      0.346597    4.327188    4.054269
C     -0.179114    3.119005    3.427172
C     -1.703780    3.172783    3.662667
O     -2.026415    3.755533    4.939044
O     -4.224800    1.920123    1.411688
C     -5.022452    2.412821    0.319630
C     -4.968713    3.938775    0.289152
C     -4.703441    1.727334   -1.040239
O     -5.194198    0.377326   -0.948741
C     -5.239237   -0.333390   -2.187136
O     -6.525069   -0.140179   -2.775733
C     -6.800314   -0.997916   -3.894300
C     -5.911800   -0.644104   -5.087225
C     -6.718243   -2.491356   -3.511732
O     -8.050456   -3.074043   -3.491420
C     -8.554242   -3.460334   -4.691359
O     -8.025695   -3.252054   -5.774501
C     -9.886184   -4.147607   -4.520335
C     -9.864225   -5.277138   -3.490187
C     -8.845445   -6.389389   -3.768100
C     -8.984621   -7.093693   -5.119391
C    -10.329022   -7.777649   -5.311422
C     -6.162801   -2.676733   -2.094048
O     -5.861114   -4.085915   -1.930909
C     -5.758020   -4.523607   -0.655168
O     -5.900927   -3.858789    0.356278
C     -5.448637   -5.966338   -0.697710
C     -5.308615   -6.655368    0.444638
C     -5.018662   -8.094122    0.503817
C     -4.167060   -8.727768   -0.411050
C     -3.898237  -10.094987   -0.302818
C     -4.469212  -10.840144    0.726549
C     -5.304113  -10.218373    1.652101
C     -5.572527   -8.851432    1.544450
C     -4.915343   -1.816147   -1.885796
O     -3.861833   -2.265494   -2.763590
C     -3.181587    1.724232   -1.297690
O     -2.777299    3.079833   -1.565338
C     -1.399121    3.236999   -1.936330
O     -0.640488    3.529637   -0.773262
C      0.770585    3.693533   -1.012176
C      1.247808    4.873583   -0.152170
O      0.764010    6.119858   -0.662076
C      1.170788    3.862630   -2.497775
O      1.278083    2.546385   -3.075250
C      0.153287    4.673974   -3.323443
O      0.481843    6.070261   -3.282992
C     -1.303476    4.447447   -2.878661
O     -2.147499    4.256497   -4.027042
H      7.800733   -4.280833   -4.373659
H      7.260769   -5.849039   -3.750894
H      6.112659   -4.502754   -3.905346
H      7.348692   -3.229840   -2.155152
H      8.566258   -4.489161   -2.074108
H      7.051596   -4.663910   -0.169294
H      6.980828   -6.106215   -1.167307
H      4.821497   -5.414150   -2.127845
H      4.764160   -5.480835   -0.374924
H      5.038643   -2.935469   -2.055131
H      5.107828   -2.973362   -0.293153
H      2.744353   -3.928854   -1.998383
H      2.797597   -3.947943   -0.233303
H      3.093763   -1.465908   -0.210716
H      3.058141   -1.441066   -1.974738
H      0.732909   -2.383302   -1.940049
H      0.761694   -2.393676   -0.178944
H      1.073047    0.108747   -1.933815
H      1.135361    0.071819   -0.161457
H     -2.978497    0.050102    0.077063
H     -2.402365    2.868667    1.075579
H     -3.408746    1.822410    3.773014
H     -1.499469   -0.161907    4.114444
H     -3.481910    0.217987    5.578020
H     -1.999437   -0.063317    6.515043
H     -2.632263    1.567537    6.367744
H      1.422855    2.045298    4.447333
H      1.512708   -0.774240    2.225982
H      1.158506   -0.414825    5.175665
H      1.073691   -2.696022    4.891282
H      3.452525   -0.482149    5.431508
H      3.812246   -2.635339    6.106996
H      4.989769   -1.830771    4.135897
H      4.449362   -3.034572    2.136203
H      3.527343   -3.733472    3.479298
H      2.741514   -2.690531    2.272366
H      3.362055    1.271773    3.516155
H      4.970616    0.386574    0.872092
H      3.118345    1.335506   -0.870992
H      4.072264    2.793084   -0.712337
H      5.167175    0.021991   -1.438465
H      6.122495    1.499911   -1.409935
H      4.585391    2.487791   -3.157155
H      3.733027    0.949034   -3.242547
H      6.700168    1.386177   -3.881786
H      5.399538    1.247888   -5.059890
H      6.544979   -0.888973   -4.919621
H      4.927687   -1.095143   -4.226130
H      6.347341   -0.962114   -3.167237
H      4.615540    3.337963    1.637485
H      5.309239    2.117185    2.672196
H      6.525786    3.145659    0.057949
H      7.089787    1.703841    0.900695
H      8.536174    3.155820    1.811097
H      7.278458    3.347530    3.005984
H      7.912836    5.154931    0.608886
H      8.272591    5.497729    2.290835
H      5.492147    5.359005    1.033446
H      6.367826    6.813143    1.466846
H      6.293070    6.252015    3.863888
H      5.558765    4.690594    3.510832
H      3.636902    5.959752    2.381243
H      4.301202    7.435712    3.052264
H      3.774137    6.899455    5.243266
H      3.944860    5.163447    5.017928
H      1.606055    6.754895    3.835282
H      1.592852    5.959601    5.429048
H      0.010787    3.179823    2.348235
H     -2.135219    3.861002    2.929230
H     -1.354991    4.442718    5.103145
H     -6.052540    2.141584    0.584098
H     -3.951531    4.326362    0.194898
H     -5.353781    4.340455    1.233398
H     -5.576686    4.340124   -0.527103
H     -5.242069    2.250947   -1.839910
H     -4.496665    0.066419   -2.881590
H     -7.828819   -0.755731   -4.187281
H     -6.248634   -1.158146   -5.992417
H     -5.932406    0.435238   -5.271765
H     -4.866784   -0.919458   -4.917215
H     -6.112220   -3.063248   -4.226898
H    -10.618789   -3.386853   -4.227564
H    -10.202253   -4.531370   -5.496340
H    -10.869425   -5.709150   -3.420902
H     -9.649115   -4.860908   -2.497859
H     -7.830799   -5.979543   -3.693112
H     -8.927563   -7.137127   -2.969047
H     -8.195238   -7.851472   -5.194678
H     -8.812139   -6.387417   -5.938696
H    -11.145456   -7.051205   -5.359836
H    -10.332345   -8.342595   -6.249136
H    -10.534553   -8.476538   -4.494496
H     -6.942073   -2.402429   -1.368793
H     -5.359532   -6.421061   -1.676157
H     -5.432812   -6.154451    1.403807
H     -3.691388   -8.165382   -1.210687
H     -3.237127  -10.575420   -1.019440
H     -4.258433  -11.902947    0.811173
H     -5.745795  -10.795331    2.460376
H     -6.225745   -8.384249    2.278498
H     -4.527743   -1.942859   -0.868921
H     -3.018158   -1.933548   -2.378586
H     -2.946053    1.153116   -2.199297
H     -1.060998    2.324397   -2.438943
H      1.237124    2.785499   -0.614849
H      0.870393    4.774788    0.868427
H      2.341201    4.918459   -0.128843
H      0.999226    6.794819    0.002154
H      2.172102    4.304583   -2.561759
H      1.655352    2.655566   -3.968411
H      0.247917    4.390413   -4.378653
H      0.468516    6.334613   -2.336269
H     -1.680639    5.343142   -2.368960
H     -3.044159    4.118087   -3.668575
