81

C     -7.013777    0.016163    2.381269
C     -7.771079    1.268455    1.974686
C     -6.899904    2.520125    1.830751
C     -5.845876    2.440295    0.721055
C     -4.465735    2.020606    1.236632
C     -3.451949    1.931018    0.091767
C     -2.058463    1.495717    0.558101
C     -1.770234   -0.001563    0.395946
C     -2.654337   -0.908171    1.253943
C     -2.178093   -2.365320    1.276959
C     -2.295751   -3.057498   -0.083084
C     -1.913092   -4.540761   -0.047652
C     -0.485457   -4.850149    0.417208
C      0.631623   -4.101818   -0.317906
C      0.683399   -4.402995   -1.816561
C      1.864702   -3.731931   -2.530404
C      1.513747   -2.433908   -3.263249
C      1.138502   -1.216925   -2.412994
C      2.319348   -0.508329   -1.737127
C      2.628746   -1.016652   -0.327816
C      3.680612   -0.169942    0.399561
C      5.072348   -0.268715   -0.230149
C      6.170270    0.440061    0.573638
C      6.269968    1.967633    0.456405
C      6.459382    2.507016   -0.947219
C      5.100325    3.032027   -1.334884
C      4.454099    3.287111   -0.011084
O      3.446365    3.952521    0.163732
O      5.113473    2.621465    0.979529
H     -6.416218    0.189782    3.281477
H     -6.353331   -0.327051    1.579794
H     -7.717692   -0.795032    2.593992
H     -8.538365    1.471034    2.731830
H     -8.303009    1.078835    1.034803
H     -7.574805    3.352772    1.593590
H     -6.434295    2.767455    2.792150
H     -6.179852    1.766902   -0.077045
H     -5.748149    3.435961    0.269467
H     -4.116026    2.756362    1.971583
H     -4.532225    1.065080    1.759345
H     -3.819020    1.262195   -0.695579
H     -3.365513    2.927611   -0.360086
H     -1.879886    1.804304    1.594916
H     -1.318582    2.029701   -0.052394
H     -1.875585   -0.268938   -0.661815
H     -0.719112   -0.172037    0.659401
H     -2.659095   -0.535189    2.285266
H     -3.687918   -0.876781    0.891918
H     -2.782401   -2.914616    2.009330
H     -1.143005   -2.394927    1.634787
H     -3.332750   -2.981066   -0.433396
H     -1.682823   -2.542645   -0.828928
H     -2.611758   -5.072308    0.610771
H     -2.065749   -4.962347   -1.048456
H     -0.316726   -5.929914    0.318426
H     -0.401540   -4.631638    1.488691
H      1.587569   -4.391341    0.136408
H      0.523920   -3.029445   -0.145174
H     -0.256866   -4.125710   -2.304743
H      0.787504   -5.489213   -1.935819
H      2.715268   -3.592288   -1.858019
H      2.213447   -4.433815   -3.300282
H      0.676222   -2.643169   -3.941837
H      2.357275   -2.164441   -3.911639
H      0.690645   -0.488599   -3.103076
H      0.352032   -1.457149   -1.693376
H      2.067657    0.557649   -1.660730
H      3.206034   -0.572036   -2.376740
H      2.964717   -2.056279   -0.355588
H      1.709710   -0.992864    0.269663
H      3.734842   -0.514362    1.439703
H      3.336754    0.866575    0.430241
H      5.065370    0.094225   -1.261271
H      5.340446   -1.332043   -0.285356
H      6.050522    0.176355    1.632060
H      7.134281    0.022292    0.255233
H      7.121450    2.282030    1.072697
H      7.166836    3.345845   -0.916960
H      6.863240    1.778822   -1.656678
H      4.513612    2.290092   -1.882343
H      5.179310    3.954888   -1.914579
