104

C     -8.074940    2.192612    5.029326
C     -7.099989    1.073461    5.360868
C     -5.660268    1.372495    4.938266
C     -5.482141    1.474546    3.421660
C     -4.008315    1.656642    3.050491
C     -3.825607    1.779474    1.536936
C     -2.369975    2.017193    1.122655
C     -1.406134    0.865734    1.416196
C     -1.722430   -0.478074    0.749246
C     -1.621643   -0.472860   -0.781493
C     -2.965881   -0.239795   -1.478141
C     -2.880495   -0.335028   -3.005306
C     -2.070909    0.804064   -3.631096
C     -2.115070    0.808009   -5.159811
C     -1.543597   -0.429176   -5.862474
C     -0.036894   -0.640787   -5.667964
C      0.366261   -1.559581   -4.508054
C     -0.020292   -3.024153   -4.736058
C      0.348330   -3.945897   -3.568196
C      1.852894   -4.011176   -3.297014
C      2.197068   -5.130731   -2.310947
C      3.703769   -5.251224   -2.051703
C      4.168128   -4.654009   -0.719716
C      3.989731   -3.143967   -0.552188
C      4.801849   -2.318605   -1.554974
C      4.726756   -0.814992   -1.265993
C      5.677609   -0.389282   -0.141812
C      5.551320    1.097525    0.186138
O      4.276476    1.391783    0.779313
C      4.200641    1.173059    2.116640
O      5.085858    0.739593    2.835416
C      2.849517    1.557261    2.572088
C      2.517314    1.390040    3.861118
C      1.209663    1.741856    4.425634
C      0.545750    2.929557    4.087893
C     -0.677070    3.254683    4.683301
C     -1.231830    2.392265    5.622598
O     -2.420106    2.669965    6.229597
C     -0.585239    1.215463    5.975726
C      0.637686    0.893866    5.383277
H     -9.063239    1.963455    5.440799
H     -8.188255    2.319266    3.948754
H     -7.742253    3.143539    5.457218
H     -7.115999    0.907880    6.444756
H     -7.440631    0.142344    4.893305
H     -5.323925    2.302082    5.413317
H     -5.017081    0.570973    5.322411
H     -5.871091    0.567874    2.942837
H     -6.058071    2.321651    3.032617
H     -3.620633    2.559248    3.536119
H     -3.435060    0.804881    3.432495
H     -4.225496    0.888130    1.042630
H     -4.422967    2.626434    1.176428
H     -2.000888    2.914338    1.635733
H     -2.335402    2.255737    0.054010
H     -0.398223    1.177978    1.114208
H     -1.353239    0.706049    2.499048
H     -2.694554   -0.859784    1.079587
H     -0.978167   -1.193897    1.123250
H     -0.878138    0.263856   -1.103074
H     -1.245898   -1.454228   -1.098882
H     -3.381830    0.734381   -1.208128
H     -3.681396   -0.994662   -1.129005
H     -2.460552   -1.307500   -3.282570
H     -3.901057   -0.307081   -3.406939
H     -2.478717    1.760535   -3.279784
H     -1.030434    0.777706   -3.295091
H     -3.157680    0.932081   -5.479487
H     -1.581487    1.696936   -5.519471
H     -1.713562   -0.280318   -6.937380
H     -2.119213   -1.319696   -5.596470
H      0.371443   -1.069845   -6.592325
H      0.457409    0.330241   -5.542261
H     -0.056914   -1.206662   -3.564660
H      1.455458   -1.489780   -4.403595
H      0.459018   -3.390562   -5.652133
H     -1.100822   -3.107302   -4.892728
H     -0.174644   -3.619262   -2.661034
H     -0.023095   -4.951345   -3.802066
H      2.189834   -3.050891   -2.897593
H      2.388412   -4.180963   -4.238893
H      1.647466   -4.996832   -1.371956
H      1.850251   -6.078872   -2.741923
H      4.283882   -4.837851   -2.884204
H      3.949873   -6.320926   -2.018893
H      3.633487   -5.157257    0.095976
H      5.228960   -4.899756   -0.583242
H      4.298846   -2.887956    0.467793
H      2.928585   -2.879845   -0.624007
H      5.847862   -2.647469   -1.559591
H      4.414474   -2.490846   -2.564678
H      3.694424   -0.530548   -1.030845
H      5.005019   -0.272109   -2.177943
H      6.709440   -0.597707   -0.448279
H      5.476920   -0.981514    0.756517
H      6.365122    1.420827    0.846572
H      5.631111    1.697945   -0.726651
H      2.169114    1.959382    1.832691
H      3.230488    0.954724    4.560253
H      0.979264    3.621946    3.370441
H     -1.172817    4.179461    4.406142
H     -2.755900    3.513343    5.884745
H     -1.027319    0.551775    6.713277
H      1.136693   -0.027862    5.674527
