19

O     -4.183980   -2.316285    0.879227
C     -3.574403   -1.368688    1.339187
O     -4.175850   -0.480054    2.150072
C     -2.146258   -1.052105    1.096678
C     -1.522889    0.063231    1.668512
C     -0.170849    0.326016    1.413315
C      0.565752   -0.523227    0.586009
O      1.885326   -0.381045    0.257672
C      2.570331    0.735809    0.810589
C     -0.059791   -1.635937    0.016700
C     -1.408253   -1.902698    0.267986
H     -5.095630   -0.812331    2.217215
H     -2.079456    0.736942    2.315828
H      0.273492    1.200969    1.876363
H      2.129172    1.678019    0.469008
H      2.593498    0.682780    1.904073
H      3.604330    0.703856    0.453871
H      0.508769   -2.301577   -0.628902
H     -1.876295   -2.774260   -0.185035
