71

C      0.865793    4.051376   -3.697766
C      1.259093    2.783196   -2.932429
C      1.388483    1.573137   -3.875328
C      0.061166    0.951348   -4.314178
C     -1.040194    0.984498   -3.222948
C     -2.144212    1.967550   -3.624818
O     -2.884626    1.313073   -4.681617
C     -2.824038   -0.037854   -4.489331
O     -3.412019   -0.894142   -5.116052
C     -1.949130   -0.207667   -3.315267
C     -2.279125   -1.054291   -2.330390
C     -1.814413   -0.813665   -0.924841
O     -0.726567   -1.698918   -0.698908
C     -0.758225   -2.337643    0.581023
O     -0.381711   -1.386401    1.580512
C     -0.311439   -1.947762    2.899618
C     -0.023499   -0.815757    3.899392
O      1.372504   -0.536339    3.969672
C      0.756329   -3.050026    2.941369
O      0.861839   -3.646130    4.237743
C      0.383083   -4.134490    1.934168
O      1.402947   -5.147009    1.896006
C      0.211817   -3.538164    0.538187
O     -0.277888   -4.572920   -0.331834
C     -1.391272    0.666871   -0.728533
C     -0.373362    1.095765   -1.815626
C      0.435538    2.435288   -1.605785
C     -0.487739    3.590070   -1.169258
C      1.557706    2.271288   -0.501279
C      1.163800    1.899389    0.929664
C      2.252375    2.189529    1.912498
C      3.419310    1.413520    2.162562
C      4.113573    2.061133    3.156484
O      3.454301    3.183654    3.539018
C      2.333627    3.261549    2.778013
H     -0.135873    4.012807   -4.117925
H      1.554998    4.215707   -4.534487
H      0.937027    4.936288   -3.057641
H      2.295063    3.000427   -2.632245
H      1.971031    1.842638   -4.765315
H      1.982564    0.801436   -3.367260
H      0.265867   -0.082048   -4.625176
H     -0.274558    1.470430   -5.221549
H     -2.846099    2.205806   -2.816276
H     -1.776978    2.906558   -4.031281
H     -3.029163   -1.825513   -2.487387
H     -2.652840   -1.023983   -0.248580
H     -1.774757   -2.704727    0.776646
H     -1.301942   -2.351496    3.147972
H     -0.549749    0.099382    3.606881
H     -0.345055   -1.104293    4.904848
H      1.473899    0.417662    4.148191
H      1.747731   -2.663230    2.672477
H      1.350357   -2.998866    4.784915
H     -0.533046   -4.652398    2.245109
H      1.580113   -5.362593    2.833982
H      1.182639   -3.223537    0.135403
H      0.356556   -5.309784   -0.229264
H     -2.279898    1.308453   -0.768553
H     -0.984760    0.775000    0.272749
H      0.395776    0.307094   -1.782723
H     -1.212240    3.857271   -1.941441
H     -1.061897    3.341721   -0.271949
H      0.090434    4.490958   -0.934733
H      2.285772    1.523397   -0.847873
H      2.113149    3.220495   -0.456637
H      0.955575    0.826766    0.981120
H      0.262888    2.433870    1.245754
H      3.710603    0.489915    1.680969
H      5.040843    1.861966    3.675440
H      1.703069    4.119566    2.967023
