83

C     -4.160735    2.333110   -2.024387
C     -4.433658    0.842139   -2.044655
C     -3.780885    0.025173   -0.936506
O     -4.368428   -0.969239   -0.500161
C     -2.381197    0.377982   -0.453117
C     -1.383684    0.193484   -1.576946
O     -1.549311    0.477891   -2.751214
O     -0.237687   -0.390995   -1.114017
C     -0.270433   -0.459064    0.313606
C      0.341310    0.861039    0.806039
O      0.228211    1.933692    0.216584
C      0.448978   -1.738847    0.827938
C      2.008770   -1.931490    0.513405
C      2.824058   -0.970434    1.429979
C      2.444375   -3.380436    0.886269
O      2.449292   -3.745845    2.066558
C      2.830354   -4.393276   -0.188981
C      3.068819   -3.815361   -1.584718
O      4.295859   -3.069177   -1.549502
C      3.987422   -1.729791   -1.142479
C      4.526936   -0.589450   -2.025817
O      4.125516    0.566600   -1.961413
O      5.531169   -1.021556   -2.836342
C      6.083063   -0.007952   -3.676121
C      2.423389   -1.683652   -0.994307
C      2.006611   -2.802140   -1.994710
C      0.598350   -3.408763   -1.957421
C      2.209382   -2.337312   -3.460777
C      0.023783   -2.043528    2.299417
C     -0.921808   -1.026016    2.951316
C     -2.184854   -0.616220    2.108009
C     -3.202462   -1.769385    2.338422
C     -2.738513    0.717041    2.747664
O     -1.748453    1.748676    2.529849
C     -1.520449    2.603905    3.565896
C     -0.551642    3.667713    3.148422
O     -2.004197    2.512147    4.683474
C     -4.091153    1.198886    2.290691
C     -5.369963    0.616883    2.544830
C     -6.307649    1.436619    1.963810
O     -5.706571    2.514267    1.406162
C     -4.377767    2.381914    1.633086
C     -1.783076   -0.587810    0.588654
H     -4.668525    2.817390   -2.864851
H     -3.094673    2.560669   -2.105728
H     -4.532934    2.790837   -1.106431
H     -4.118596    0.417986   -3.003706
H     -5.517020    0.690534   -1.965963
H     -2.345455    1.413559   -0.112136
H      0.858819    0.835988    1.774932
H     -0.029823   -2.552418    0.281869
H      3.809294   -1.375684    1.686835
H      2.974352    0.003999    0.953109
H      2.344647   -0.784385    2.393880
H      3.750569   -4.880552    0.156142
H      2.039238   -5.149713   -0.222678
H      3.185253   -4.626270   -2.311696
H      4.527533   -1.588005   -0.205827
H      6.540690    0.781878   -3.072347
H      5.313702    0.404367   -4.336515
H      6.860251   -0.465765   -4.294238
H      2.056434   -0.704607   -1.309748
H      0.484722   -4.158014   -2.751648
H     -0.172346   -2.653700   -2.128404
H      0.366526   -3.946403   -1.037995
H      1.579549   -1.467036   -3.677299
H      3.239791   -2.074128   -3.704388
H      1.934274   -3.131163   -4.165633
H      0.884130   -2.149184    2.964795
H     -0.461402   -3.028655    2.315037
H     -1.242556   -1.430370    3.921698
H     -0.330662   -0.145012    3.218732
H     -3.493053   -1.835930    3.393461
H     -2.779386   -2.741209    2.060005
H     -4.114361   -1.648998    1.754448
H     -2.834111    0.523937    3.826240
H     -0.524585    4.451391    3.910849
H     -0.877125    4.120394    2.208025
H      0.446753    3.237334    3.042621
H     -5.590818   -0.294725    3.082634
H     -7.385130    1.402961    1.880465
H     -3.768202    3.199302    1.271146
H     -2.051567   -1.589107    0.208087
