56

C     -2.171517    2.751832   -1.608003
C     -0.912696    2.293510   -0.911384
C      0.153448    3.110822   -0.923083
C      1.502690    2.744756   -0.409689
C      1.687923    1.221951   -0.293383
C      3.145450    0.829134    0.176302
C      4.069467    0.824999   -1.071840
C      3.784855    1.813814    1.179607
C      3.174144   -0.583429    0.801899
C      2.123051   -1.486532    0.188329
C      0.712863   -0.999109    0.513258
C      0.490223    0.549947    0.480906
C      0.424400    1.066889    1.940077
C     -0.890804    0.882605   -0.282791
C     -2.195409    0.688637    0.561175
C     -2.536713   -0.700660    1.117939
C     -3.548804   -1.530818    0.291476
C     -3.917295   -2.789844    1.090464
C     -3.031355   -1.949411   -1.094586
C     -3.334126   -0.945191   -2.174865
O     -4.262076   -0.156228   -2.214161
O     -2.459021   -1.023587   -3.196533
H     -2.953764    3.000507   -0.884926
H     -2.536192    1.974696   -2.285199
H     -2.002137    3.646683   -2.217685
H      0.075408    4.101664   -1.366749
H      2.247691    3.147880   -1.105526
H      1.652156    3.253676    0.548102
H      1.593587    0.832025   -1.321249
H      5.098140    0.557505   -0.803006
H      4.103570    1.810011   -1.549321
H      3.729772    0.103571   -1.822825
H      3.167196    1.960505    2.068604
H      3.962392    2.796738    0.729807
H      4.759133    1.442824    1.520508
H      3.006990   -0.533414    1.884953
H      4.164581   -1.039207    0.677722
H      2.255940   -1.543437   -0.898484
H      2.244864   -2.508914    0.565425
H      0.458978   -1.388503    1.507134
H      0.043264   -1.503874   -0.189852
H     -0.355028    0.556631    2.515429
H      0.212978    2.139225    1.988408
H      1.352348    0.883513    2.484177
H     -0.948350    0.201682   -1.141260
H     -3.069864    1.010787   -0.012932
H     -2.157519    1.391124    1.404692
H     -2.997771   -0.531311    2.101698
H     -1.651737   -1.297654    1.324992
H     -4.468405   -0.941367    0.185848
H     -4.689001   -3.368639    0.571636
H     -3.045285   -3.436914    1.235087
H     -4.312368   -2.525763    2.077254
H     -1.953467   -2.132456   -1.056721
H     -3.509542   -2.881655   -1.419624
H     -2.767500   -0.340969   -3.828631
