47

C     -2.665441    4.596938    0.546968
C     -1.418879    4.502596    1.432322
C     -1.780938    4.597936    2.917283
C     -0.564930    3.283270    1.114277
C      0.710034    3.380223    0.719184
O      1.342567    4.608321    0.588982
C      1.538371    2.189953    0.420729
O      2.728578    2.372124    0.171787
C      0.902766    0.842022    0.415248
C     -0.384530    0.719194    0.815242
C     -1.197634   -0.571592    0.900396
C     -1.069566   -1.520791   -0.291006
O     -2.032575   -2.567776   -0.255470
C     -1.522204   -3.641404   -0.927351
O     -2.204293   -4.572003   -1.326530
C     -0.011875   -3.541081   -1.040877
C      0.575604   -4.726925   -0.253313
C      0.475928   -3.613274   -2.500743
C      0.732084   -2.264812   -3.170131
C      1.464334   -1.309364   -2.276705
C      1.249341   -1.277545   -0.950656
C      1.858620   -0.255803   -0.025767
C      0.274372   -2.221515   -0.316757
C     -1.158724    1.928530    1.269992
O     -2.271592    1.792257    1.768170
H     -3.397762    3.815952    0.772921
H     -2.400451    4.518354   -0.513143
H     -3.163573    5.561854    0.693665
H     -0.836310    5.406841    1.211451
H     -2.254661    5.562484    3.131645
H     -0.886333    4.521374    3.544990
H     -2.481179    3.816535    3.227313
H      2.268993    4.397823    0.339257
H     -2.269144   -0.354165    0.987750
H     -0.946989   -1.088865    1.835949
H     -1.272264   -0.953169   -1.210741
H      0.348982   -5.679421   -0.746684
H      0.159186   -4.784462    0.759506
H      1.664386   -4.641035   -0.165658
H      1.425077   -4.167115   -2.533603
H     -0.222575   -4.190535   -3.119264
H     -0.213175   -1.806926   -3.484346
H      1.321259   -2.429704   -4.079893
H      2.127416   -0.589087   -2.751851
H      2.263291   -0.753083    0.865085
H      2.732372    0.164900   -0.538202
H      0.605256   -2.451191    0.705712
