34

C      1.240945    2.443115   -3.245595
O      0.959256    1.422213   -2.299805
C      0.817881    1.762536   -0.982632
C      0.995598    3.067609   -0.499674
C      0.857987    3.333633    0.861033
O      1.033355    4.589960    1.361741
C      0.536148    2.325653    1.756983
C      0.338113    1.029010    1.288704
C      0.492475    0.733972   -0.074286
C      0.332334   -0.691110   -0.484130
O      0.342083   -1.063156   -1.652423
C      0.199349   -1.690309    0.631083
C     -0.644368   -1.054979    1.720115
C     -0.889720   -2.039683    2.848797
C     -2.083478   -2.777493    2.887135
C     -2.313217   -3.706041    3.904231
C     -1.352521   -3.912271    4.891841
C     -0.160517   -3.191976    4.863406
C      0.071598   -2.263464    3.847204
O      0.016542    0.103477    2.247935
H      0.443760    3.193353   -3.266782
H      1.287294    1.979082   -4.235487
H      2.214153    2.904270   -3.048628
H      1.250064    3.881638   -1.168202
H      1.258596    5.198043    0.638499
H      0.430067    2.549645    2.815055
H     -0.283682   -2.594143    0.242723
H      1.207135   -1.949112    0.976312
H     -1.618213   -0.728153    1.326561
H     -2.845364   -2.635534    2.123417
H     -3.242400   -4.269773    3.925305
H     -1.532383   -4.634765    5.683540
H      0.589968   -3.352193    5.633164
H      1.008805   -1.710243    3.841261
