27

C     -1.860878    1.793033    2.063295
O     -1.733348    0.502864    1.475721
C     -0.886780    0.490677    0.302759
C     -1.069005   -0.890152   -0.340265
O     -2.463937   -1.143851   -0.592713
C     -0.295862   -1.017411   -1.660612
O     -1.149605   -0.705224   -2.775884
C      0.923963   -0.087179   -1.736257
O      1.886722   -0.654318   -2.639927
C      1.578009    0.104174   -0.367471
O      2.013930   -1.174344    0.114962
C      0.603511    0.737625    0.647197
O      0.826263    2.158041    0.682640
H     -2.650165    1.742971    2.818594
H     -0.934157    2.082149    2.565217
H     -2.144599    2.540001    1.316016
H     -1.270052    1.260864   -0.380227
H     -0.733213   -1.660376    0.365240
H     -2.914406   -0.872127    0.234436
H     -0.001750   -2.063853   -1.804484
H     -2.045610   -0.978250   -2.477395
H      0.643342    0.889028   -2.150804
H      1.403891   -0.782829   -3.481089
H      2.481803    0.716219   -0.470645
H      2.558642   -1.546131   -0.610224
H      0.809452    0.361883    1.657057
H      1.698312    2.298231    1.095187
