20

O     -1.788140    4.350591   -2.350251
C     -1.314414    3.234447   -2.234749
O     -1.072623    2.459340   -3.302507
C     -0.958870    2.615441   -0.950974
C     -0.431824    1.386276   -0.839068
C     -0.085016    0.758509    0.443381
C      0.468328    1.482649    1.508363
C      0.809292    0.840112    2.701384
C      0.608525   -0.528130    2.829738
O      0.955462   -1.113315    4.010734
C      0.075945   -1.269421    1.781433
C     -0.264154   -0.624963    0.588055
H     -1.358205    3.011805   -4.059257
H     -1.170540    3.235405   -0.087225
H     -0.255089    0.778483   -1.724042
H      0.653040    2.550422    1.422457
H      1.235541    1.406264    3.524771
H      0.759626   -2.062936    3.956201
H     -0.080082   -2.339758    1.869591
H     -0.679638   -1.213484   -0.227382
