51

O     -2.582242    3.229040   -2.051638
C     -2.083628    2.117116   -2.185993
C     -2.010258    1.456068   -3.496424
C     -1.445181    0.242671   -3.581186
C     -1.348763   -0.478713   -4.865130
C     -1.633298   -1.853044   -4.920070
C     -1.539811   -2.558352   -6.123933
C     -1.153317   -1.888929   -7.278827
O     -1.047809   -2.534560   -8.474230
C     -0.857372   -0.532467   -7.247875
C     -0.951542    0.171208   -6.044320
O     -0.929915   -0.454906   -2.498778
C     -0.978940    0.131552   -1.258956
C     -0.441515   -0.590842   -0.192706
C     -0.470243   -0.061729    1.100950
O      0.114296   -0.842582    2.062457
C     -0.381660   -0.686166    3.403604
O      0.355442    0.322811    4.101294
C      1.725758    0.025043    4.415499
C      2.672337    0.826439    3.510333
O      2.825866    0.226955    2.228905
C      2.060082   -1.475710    4.450068
O      3.210184   -1.740045    5.263496
C      0.859411   -2.200521    5.042590
O      1.153571   -3.592498    5.236522
C     -0.344351   -2.066141    4.110411
O     -1.534373   -2.287351    4.890551
C     -1.006443    1.208880    1.319269
C     -1.540842    1.928337    0.250431
O     -2.054200    3.164875    0.535470
C     -1.531166    1.389005   -1.038407
H     -2.432721    1.989805   -4.337861
H     -1.938108   -2.386746   -4.021871
H     -1.770102   -3.618949   -6.136949
H     -1.277889   -3.469355   -8.345468
H     -0.548848   -0.023350   -8.156848
H     -0.697375    1.228686   -6.041047
H     -0.003746   -1.570583   -0.369324
H     -1.430888   -0.364521    3.381522
H      1.869196    0.433903    5.424324
H      3.668742    0.877609    3.960328
H      2.306267    1.847998    3.364763
H      1.946332    0.239203    1.806853
H      2.270303   -1.889099    3.456792
H      3.989918   -1.459468    4.747816
H      0.629355   -1.808699    6.041574
H      2.044310   -3.603912    5.643834
H     -0.339111   -2.863394    3.356747
H     -1.397531   -3.145307    5.338196
H     -1.006376    1.669918    2.303341
H     -2.399188    3.556895   -0.298979
