37

C     -0.970235    2.073925   -3.944076
C     -1.022896    1.426399   -2.774139
C     -2.261014    0.803372   -2.265836
O     -3.319068    0.701008   -2.855500
O     -2.014113    0.348897   -1.007895
C     -0.705067    0.742378   -0.564728
C      0.069175    1.226115   -1.788581
C      1.127175    0.224033   -2.242397
C      2.122719   -0.100908   -1.121023
C      1.488866   -0.237477    0.301317
C      1.874055    0.994769    1.143741
C      2.112773   -1.443587    1.018128
O      3.283910   -1.780734    0.854361
C      1.306831   -2.168597    2.028280
C      0.014875   -1.883920    2.230120
C     -0.791745   -0.884173    1.451916
C     -1.270913    0.240071    2.374749
O     -1.966889   -1.604484    1.059078
C     -0.043190   -0.449666    0.158095
H     -0.052834    2.531828   -4.298636
H     -1.849136    2.156663   -4.579475
H     -0.842513    1.586222    0.121529
H      0.560038    2.179986   -1.557721
H      1.676781    0.613731   -3.108409
H      0.652001   -0.705576   -2.583871
H      2.641380   -1.022986   -1.412586
H      2.897801    0.676495   -1.112459
H      1.600153    0.876717    2.195611
H      2.961045    1.145028    1.137727
H      1.417327    1.914912    0.769136
H      1.824729   -2.930483    2.599967
H     -0.522249   -2.443767    2.994348
H     -0.463841    0.890584    2.715089
H     -2.035079    0.857667    1.890170
H     -1.760201   -0.172416    3.266628
H     -2.460256   -1.053920    0.420098
H     -0.169788   -1.315695   -0.515615
