38

O      0.281211    3.695196   -1.735646
C      0.447899    2.547215   -1.324868
C     -0.661826    1.528833   -1.360278
C     -0.109077    0.117527   -1.422365
C      0.834032   -0.177016   -0.239771
O      0.139343    0.013720    1.006747
C     -0.527619   -1.090938    1.448796
C     -1.491452   -0.909029    2.437290
C     -2.199662   -2.007097    2.924050
C     -1.932888   -3.287375    2.431175
C     -0.948244   -3.482033    1.448724
C     -0.625962   -4.752996    0.945292
C      0.381721   -4.902286   -0.011554
C      1.072587   -3.785073   -0.479363
C      0.745632   -2.519243    0.000216
C     -0.247090   -2.359360    0.958071
O      1.451115   -1.457582   -0.486704
C      1.948562    0.864392   -0.215405
C      3.187300    0.559429    0.385839
C      4.215801    1.501465    0.436507
C      4.022422    2.770857   -0.098905
C      2.798774    3.100017   -0.674053
O      2.688765    4.376387   -1.159662
C      1.756275    2.160089   -0.732503
H     -1.267279    1.712888   -2.254792
H     -1.298191    1.676278   -0.481438
H      0.423649   -0.036466   -2.371162
H     -0.949142   -0.587706   -1.429666
H     -1.693639    0.085488    2.825625
H     -2.956321   -1.867677    3.692232
H     -2.490120   -4.133327    2.827823
H     -1.149807   -5.636466    1.303828
H      0.630635   -5.891359   -0.388136
H      1.859664   -3.901320   -1.219373
H      3.356159   -0.424131    0.823562
H      5.166454    1.246037    0.898425
H      4.819129    3.509165   -0.059990
H      1.774042    4.493536   -1.503210
