24

C     -0.208006   -0.829104   -2.438853
O      0.941611   -1.079004   -1.638416
C      1.158122   -0.224207   -0.587639
C      0.358694    0.863705   -0.229288
C      0.694614    1.659806    0.880627
C     -0.104493    2.828486    1.274395
C     -1.445021    2.861873    1.242170
C     -2.152320    4.074188    1.672284
O     -1.667518    5.109797    2.083981
O     -3.477713    3.901441    1.548762
C      1.856809    1.367726    1.609246
C      2.659214    0.282756    1.257803
C      2.301743   -0.500056    0.169343
O      3.105083   -1.558809   -0.156533
H     -0.240019   -1.590841   -3.223782
H     -1.126444   -0.919402   -1.849498
H     -0.143819    0.149149   -2.926579
H     -0.522793    1.117385   -0.807808
H      0.457462    3.690798    1.631311
H     -2.052352    2.023949    0.924981
H     -3.853218    4.751818    1.859105
H      2.143334    1.978064    2.463237
H      3.555056    0.050835    1.825781
H      2.683317   -1.962961   -0.939583
