33

C     -2.017173    3.870409    2.127771
O     -1.324231    2.987598    1.253526
C     -0.216211    2.358373    1.758611
C      0.540184    2.867638    2.822293
C      1.690008    2.203554    3.257024
C      2.103032    1.033522    2.625451
C      1.369118    0.524573    1.556852
O      1.859584   -0.628225    1.003471
C      0.205460    1.178122    1.119371
C     -0.618995    0.610295    0.030276
O     -1.825670    0.447491    0.071439
O      0.208688    0.279530   -0.993858
C     -0.420341   -0.330211   -2.128587
C     -0.131034   -1.806736   -2.079966
C     -1.012150   -2.677241   -1.423737
C     -0.727414   -4.040578   -1.340593
C      0.442859   -4.544633   -1.904967
C      1.331478   -3.686048   -2.549775
C      1.049002   -2.321927   -2.633978
H     -2.211541    3.405241    3.100242
H     -2.983521    4.103004    1.670095
H     -1.469024    4.810742    2.242770
H      0.267190    3.791018    3.323696
H      2.269743    2.604626    4.085095
H      2.999200    0.518130    2.962016
H      1.389125   -0.815135    0.168362
H     -1.497606   -0.133884   -2.186849
H      0.021387    0.111141   -3.029275
H     -1.924053   -2.293898   -0.967571
H     -1.417277   -4.708338   -0.830840
H      0.664563   -5.606554   -1.837731
H      2.247253   -4.079343   -2.983722
H      1.757298   -1.662735   -3.131432
