49

O     -1.792255   -5.262603   -0.302065
C     -1.676317   -5.437874    1.104053
C     -1.462809   -4.029716   -0.800782
C     -1.031709   -2.931821   -0.046187
C     -0.723915   -1.713260   -0.693834
C     -0.859491   -1.642158   -2.079149
N     -0.501002   -0.370835   -2.458998
C     -0.139442    0.373002   -1.364635
C     -0.273036   -0.431353   -0.243974
C      0.004298   -0.007230    1.168793
C     -0.534523    1.405330    1.463688
N      0.191220    2.567553    0.905914
C      1.105248    2.288312   -0.230413
C      1.839630    3.608174   -0.627772
C      2.699639    4.229056    0.492361
C      3.796838    3.304897    1.000151
C      0.790974    4.619835   -1.144561
C     -0.620815    4.056406   -0.914453
C     -0.740485    3.667967    0.572812
C     -0.819336    2.787038   -1.770919
C      0.328169    1.795542   -1.489266
C     -1.288346   -2.723887   -2.853898
C     -1.586604   -3.915768   -2.186004
H     -2.354817   -4.768227    1.642841
H     -1.969348   -6.465963    1.337815
H     -0.641136   -5.303885    1.435046
H     -0.923340   -2.984901    1.029559
H     -0.501144   -0.040913   -3.413917
H     -0.492127   -0.703633    1.855844
H      1.076350   -0.076642    1.385104
H     -1.587415    1.409589    1.149714
H     -0.544478    1.541717    2.552179
H      1.866858    1.555233    0.056802
H      2.522066    3.382757   -1.459586
H      2.075922    4.541484    1.337667
H      3.173474    5.140048    0.105054
H      4.417747    2.940374    0.175881
H      3.382207    2.443463    1.531670
H      4.444926    3.842247    1.700080
H      0.892183    5.590439   -0.644320
H      0.947801    4.802826   -2.214816
H     -1.374836    4.807308   -1.174077
H     -0.494211    4.531225    1.203101
H     -1.786807    3.425922    0.795328
H     -0.824059    3.049415   -2.836105
H     -1.800556    2.346386   -1.553098
H      1.020581    1.823561   -2.343617
H     -1.388276   -2.650907   -3.931454
H     -1.922601   -4.775407   -2.762035
