50

C      3.511525    0.904774   -2.948367
C      2.941969   -0.053720   -2.202330
C      1.465582   -0.222070   -1.900858
O      0.713012    0.824708   -2.530933
C     -0.533127    0.478040   -2.946605
O     -1.032834   -0.635866   -2.861343
C     -1.238143    1.672766   -3.540421
C     -0.613071    2.125802   -4.865812
C     -0.808022    1.078963   -5.964694
C     -1.221045    3.459423   -5.301951
C      1.176130   -0.183351   -0.407387
C      1.626842    0.879903    0.395106
C      1.336888    0.911228    1.757315
C      0.566912   -0.109431    2.311608
O      0.314071   -0.068882    3.685884
C     -0.950422    0.431716    3.981460
O     -1.742967    0.933168    3.193623
C     -1.182892    0.300384    5.477298
C     -0.498089    1.450759    6.204631
C     -2.676633    0.264248    5.787916
C      0.094186   -1.179715    1.542327
O     -0.628313   -2.134712    2.207385
C     -1.402043   -3.017357    1.403593
C      0.404517   -1.206792    0.180413
H      2.927642    1.689297   -3.419586
H      4.586337    0.923192   -3.100994
H      3.588457   -0.811738   -1.762606
H      1.191456   -1.201288   -2.315830
H     -2.295191    1.413919   -3.677299
H     -1.210479    2.477020   -2.794917
H      0.465291    2.274881   -4.729011
H     -0.372637    1.423041   -6.909024
H     -0.320226    0.134579   -5.702741
H     -1.870564    0.876311   -6.137028
H     -2.301172    3.371294   -5.461430
H     -0.767708    3.806872   -6.236390
H     -1.051873    4.230474   -4.542860
H      2.205878    1.690566   -0.043094
H      1.694729    1.728456    2.375462
H     -0.753224   -0.654409    5.805037
H     -0.895137    2.418850    5.879376
H      0.578974    1.455218    6.005203
H     -0.640282    1.368767    7.287117
H     -2.847397    0.104970    6.857698
H     -3.169168    1.200177    5.501574
H     -3.167709   -0.548298    5.241318
H     -0.757431   -3.716155    0.860921
H     -2.039321   -3.604454    2.071919
H     -2.055906   -2.467240    0.718269
H      0.051924   -2.015333   -0.454017
