81

C      0.681412    3.909771   -1.550436
C      2.014833    3.146004   -1.513682
C      2.171818    2.323035   -0.190626
C      0.984199    1.405912    0.160668
C      0.120476    1.805483    1.116453
C     -1.030763    1.012175    1.655707
C     -1.328833   -0.287905    0.878316
C     -2.489151   -1.178938    1.517320
C     -2.201112   -1.553854    2.991345
C     -3.816535   -0.339401    1.504277
C     -5.062531   -1.082073    1.008510
C     -5.133871   -2.530027    1.480908
O     -5.258108   -2.551039    2.900701
C     -3.913891   -3.371781    0.985556
C     -4.365798   -4.089128   -0.320520
C     -3.561890   -4.489651    1.989906
C     -2.686080   -2.446386    0.617306
C     -1.361719   -3.208391    0.419479
C     -0.326994   -2.329577   -0.285161
C      0.014087   -1.005623    0.456737
C      0.865559   -1.383344    1.701940
C      0.866982    0.019313   -0.499848
C      0.163422    0.207789   -1.876672
C      2.294897   -0.520198   -0.813366
C      3.391420    0.061079    0.080548
C      3.560765    1.594556   -0.082355
C      4.334050    2.124234    1.136344
O      4.187259    3.197876    1.698279
O      5.326853    1.306085    1.545043
C      4.450351    1.872188   -1.316533
C      4.564710    3.350554   -1.675656
C      3.225599    4.108957   -1.657136
C      3.143040    5.024481   -2.883634
H     -0.174572    3.236878   -1.446415
H      0.630217    4.654767   -0.749495
H      0.543414    4.424617   -2.505921
H      2.026236    2.470016   -2.374692
H      2.161225    3.101800    0.585264
H      0.254204    2.777363    1.590455
H     -0.798103    0.805881    2.703785
H     -1.914887    1.659080    1.653278
H     -1.777813    0.044396   -0.066958
H     -3.098288   -1.891630    3.511865
H     -1.842879   -0.705795    3.578342
H     -1.479886   -2.362382    3.099193
H     -3.716005    0.544133    0.862002
H     -4.015400    0.061944    2.506848
H     -5.946538   -0.531623    1.353760
H     -5.089091   -1.053458   -0.087851
H     -6.063864   -2.972564    1.103420
H     -6.047433   -2.034544    3.136785
H     -5.222535   -4.747019   -0.131652
H     -4.668582   -3.368611   -1.088596
H     -3.571402   -4.712496   -0.742524
H     -2.824113   -5.187308    1.579148
H     -3.157379   -4.100496    2.926631
H     -4.450886   -5.081802    2.238334
H     -2.926346   -2.041856   -0.380057
H     -1.522725   -4.089057   -0.212009
H     -0.964409   -3.586497    1.365403
H     -0.736753   -2.122505   -1.277347
H      0.578725   -2.924517   -0.449059
H      0.344560   -2.043269    2.390717
H      1.183201   -0.511271    2.279437
H      1.765987   -1.936623    1.416467
H     -0.855495    0.592865   -1.790563
H      0.697755    0.912272   -2.517325
H      0.133711   -0.722136   -2.451998
H      2.325460   -1.612497   -0.750814
H      2.561589   -0.303296   -1.855728
H      3.190046   -0.181464    1.129293
H      4.335152   -0.448521   -0.156625
H      5.734241    1.791350    2.292984
H      4.056955    1.339086   -2.190862
H      5.462593    1.475497   -1.162207
H      5.042177    3.420046   -2.661448
H      5.256672    3.844402   -0.981400
H      3.235692    4.767696   -0.777036
H      2.314858    5.734403   -2.799822
H      4.058237    5.618197   -2.987036
H      3.008983    4.443278   -3.802021
