57

C     -2.453060   -1.594712    3.346422
C     -2.695359   -1.067340    1.956409
C     -3.800399   -1.766401    1.214195
C     -1.963360   -0.041675    1.476925
C     -2.056046    0.609456    0.120314
C     -0.693541    0.925555   -0.473042
C     -0.043520    2.138546   -0.158614
C      1.207379    2.453457   -0.708453
C      1.816831    1.544811   -1.585182
O      3.030322    1.889278   -2.135501
C      1.192579    0.325380   -1.885255
C     -0.042073    0.005788   -1.314882
O     -0.686834   -1.178866   -1.564408
C      0.172126   -2.277683   -1.931716
C      0.841730   -2.861065   -0.687907
C      0.018930   -3.267786    0.380298
C      0.558753   -3.807778    1.549787
C      1.934487   -3.951495    1.659412
O      2.509771   -4.472071    2.779648
C      2.770436   -3.565940    0.620734
C      2.229323   -3.024149   -0.549364
C      1.063043   -1.910910   -3.123718
O      0.295419   -1.743883   -4.318992
C      1.798154   -0.621473   -2.840905
O      2.839971   -0.325619   -3.428691
C      1.832550    3.729304   -0.375199
C      1.255050    4.499724    0.549941
C     -0.021281    4.114779    1.252770
C     -1.006579    5.287969    1.189440
C      0.275015    3.768725    2.716532
O     -0.715471    2.989128    0.681105
H     -2.203003   -2.659940    3.309058
H     -3.350372   -1.469568    3.961198
H     -1.629066   -1.078702    3.850378
H     -3.537276   -2.816045    1.047991
H     -4.724938   -1.733200    1.800648
H     -4.023545   -1.321466    0.242491
H     -1.209825    0.399383    2.130203
H     -2.635371    1.536174    0.217006
H     -2.621269    0.002416   -0.593106
H      3.300250    1.188723   -2.769767
H     -0.512692   -3.058906   -2.290247
H     -1.061269   -3.152173    0.305081
H     -0.107121   -4.102990    2.353985
H      1.809202   -4.674795    3.420964
H      3.846155   -3.685037    0.721086
H      2.927717   -2.738893   -1.331168
H      1.789714   -2.707494   -3.316042
H      0.925597   -1.507040   -5.025455
H      2.757422    4.015750   -0.863884
H      1.727486    5.437892    0.828102
H     -1.264733    5.525481    0.150264
H     -0.601255    6.191369    1.658397
H     -1.948614    5.034075    1.689823
H      0.943317    2.902115    2.787442
H     -0.644437    3.490975    3.245214
H      0.740412    4.605293    3.249197
