42

C      2.505646   -2.583475   -4.685561
C      2.532162   -1.923289   -3.519029
C      2.030257   -2.411184   -2.158968
C      3.301042   -2.457431   -1.265981
C      1.477110   -3.857998   -2.158934
C      0.950557   -1.443475   -1.624217
C      1.083498   -0.711714   -0.500764
C      0.043988    0.193142   -0.038391
C      0.178026    0.952137    1.128031
C     -0.852583    1.814228    1.532221
C     -2.016389    1.912520    0.763298
C     -2.152934    1.157260   -0.400076
C     -1.118825    0.308447   -0.782611
O     -1.287319   -0.438857   -1.956387
C     -0.316827   -1.322598   -2.422116
O     -0.524024   -1.966059   -3.444596
O     -3.070278    2.721906    1.075785
C     -3.001910    3.535755    2.264950
C     -3.163856    4.988829    1.803167
C     -4.200239    3.133035    3.132549
C     -1.733057    3.409855    3.078486
C     -0.719998    2.606116    2.743912
H      2.887800   -2.120471   -5.590508
H      2.086824   -3.579187   -4.784601
H      2.957718   -0.918961   -3.529881
H      3.069644   -2.809628   -0.253419
H      3.782152   -1.474965   -1.181813
H      4.051243   -3.144181   -1.679051
H      2.252275   -4.581072   -2.441431
H      0.643977   -4.001138   -2.853352
H      1.119851   -4.139660   -1.160726
H      1.975567   -0.758967    0.113474
H      1.083278    0.876084    1.725575
H     -3.055123    1.230742   -0.999454
H     -3.196506    5.687068    2.646793
H     -4.082847    5.112610    1.218162
H     -2.337898    5.283386    1.144515
H     -4.125553    2.082267    3.437673
H     -5.137358    3.224280    2.570783
H     -4.279257    3.748381    4.035552
H     -1.655356    4.011422    3.980638
H      0.178679    2.535063    3.345266
