46

C      1.614968    0.377022   -1.812042
C      0.437662    0.277331   -0.889410
C     -0.869994    0.383931   -1.383607
C     -2.023095    0.307158   -0.555079
C     -3.357628    0.420491   -1.059881
C     -3.646073    0.661209   -2.544727
C     -3.728348   -0.673404   -3.290476
C     -4.902042    1.498977   -2.829065
C     -4.436493    0.272131   -0.172201
C     -4.231100    0.062771    1.186106
C     -2.937491   -0.016637    1.708125
C     -2.785416   -0.232958    3.192625
C     -1.820323    0.098226    0.841900
C     -0.499581    0.005427    1.330689
C      0.599022    0.114951    0.479902
O      1.881623   -0.034706    1.016637
C      2.396856    1.132197    1.548263
O      1.857410    2.227645    1.593237
C      3.763636    0.877113    2.084282
C      4.377664   -0.382491    2.028613
C      5.662830   -0.560372    2.547782
C      6.340434    0.513812    3.123375
C      5.737275    1.768963    3.182524
C      4.453321    1.951170    2.665036
H      2.125322    1.334609   -1.668700
H      1.309244    0.307573   -2.861272
H      2.320333   -0.439515   -1.625879
H     -0.980040    0.519959   -2.456194
H     -2.828217    1.252034   -2.970747
H     -2.808141   -1.255559   -3.172183
H     -4.557493   -1.287237   -2.920531
H     -3.882630   -0.510005   -4.362500
H     -5.825078    0.956543   -2.599529
H     -4.944697    1.768340   -3.890586
H     -4.895427    2.428671   -2.249696
H     -5.463455    0.315456   -0.524648
H     -5.096764   -0.036417    1.837549
H     -2.229853    0.595481    3.643893
H     -3.757335   -0.283063    3.695566
H     -2.268145   -1.177624    3.388990
H     -0.306687   -0.149974    2.388134
H      3.872973   -1.237539    1.585771
H      6.135915   -1.538618    2.503122
H      7.340463    0.372541    3.526670
H      6.265374    2.606902    3.631237
H      3.992184    2.936240    2.716567
