37

C     -5.350118    1.755381   -1.351892
C     -4.074346    1.051365   -0.906755
O     -4.413234    0.119517    0.121549
C     -3.051363    2.059739   -0.363068
C     -1.673990    1.453489   -0.201918
C     -0.732469    1.543286   -1.234345
C      0.528847    0.967828   -1.088548
O      1.380111    1.107207   -2.151645
C      0.873599    0.291518    0.088485
C     -0.059868    0.196614    1.118610
C     -1.330490    0.771320    0.973903
C      0.279901   -0.508645    2.369865
O     -0.527749   -0.581656    3.287861
C      1.612357   -1.128237    2.515197
C      1.919033   -1.805465    3.703710
C      3.171555   -2.395641    3.859956
O      3.463285   -3.055128    5.022683
C      4.126926   -2.317026    2.838385
Cl     5.679625   -3.055100    3.045996
C      3.816427   -1.637710    1.650134
O      4.772212   -1.575409    0.664260
C      2.553344   -1.041128    1.488504
C      2.205218   -0.321761    0.246781
O      3.030101   -0.235035   -0.661527
H     -6.083036    1.027172   -1.715756
H     -5.149584    2.474562   -2.151792
H     -5.819546    2.282134   -0.513712
H     -3.653336    0.488687   -1.748113
H     -5.026798   -0.530596   -0.262186
H     -3.379334    2.451120    0.608727
H     -2.974554    2.922681   -1.036742
H     -0.974292    2.061229   -2.160397
H      2.230639    0.667662   -1.930452
H     -2.064216    0.680768    1.775877
H      1.175734   -1.865351    4.496239
H      2.704695   -3.020793    5.629084
H      4.421440   -1.071215   -0.101938
