112

C      8.037134    4.832498   -5.056773
C      7.475540    3.433399   -4.797137
C      8.114430    2.839454   -3.532292
C      7.162266    1.865794   -2.851467
C      5.814854    2.530899   -2.512278
O      5.551184    3.670754   -3.341234
C      5.945357    3.459752   -4.692659
O      4.767295    1.551050   -2.675734
C      3.633755    2.086711   -2.000192
C      2.693326    1.022700   -1.432767
C      2.236396    1.689141   -0.139623
C      1.412893    0.890383    0.875879
C      0.148408    0.307176    0.236137
C     -0.766688   -0.394878    1.245456
O     -1.989662   -0.743017    0.583034
C     -2.041972   -2.107683    0.145248
O     -1.193351   -2.320581   -0.981927
C     -1.798105   -2.146066   -2.262995
C     -2.173587   -0.689075   -2.531822
C     -2.977542   -3.116501   -2.473780
O     -2.503829   -4.296009   -3.156317
C     -3.619409   -3.584357   -1.154897
O     -5.006033   -3.868795   -1.431869
C     -5.545596   -4.926292   -0.634225
O     -5.662294   -6.095171   -1.450409
C     -6.239467   -7.193038   -0.751718
C     -7.660809   -6.865840   -0.297365
O     -8.236943   -7.940838    0.448108
C     -7.629198   -5.618892    0.587152
O     -8.965653   -5.219051    0.931751
C     -6.927256   -4.465218   -0.127088
O     -6.803196   -3.354896    0.785451
C     -3.522688   -2.487360   -0.092182
O     -4.110229   -2.920621    1.149444
C     -1.110286    0.560998    2.407782
C     -2.130630   -0.058155    3.381300
C     -2.544562    0.940313    4.460078
O     -3.386776    0.279216    5.399005
C     -1.345190    1.534427    5.190024
C     -0.305851    2.110483    4.228643
C      0.162879    1.102872    3.140199
C      0.956964   -0.032734    3.835746
C      1.054013    1.832120    2.068352
C      2.304746    2.547513    2.647503
C      3.183675    3.218585    1.574500
C      3.558427    2.241510    0.449399
C      4.480498    1.136196    1.023325
C      4.160450    2.924557   -0.814743
C      5.678847    2.933309   -1.029530
C      6.309155    4.264597   -0.642932
H      7.769906    5.525193   -4.251343
H      7.646024    5.239405   -5.995305
H      9.129162    4.804024   -5.134476
H      7.740131    2.811873   -5.662206
H      9.049411    2.330894   -3.795279
H      8.383524    3.632687   -2.825278
H      6.992998    1.014530   -3.525011
H      7.630030    1.435570   -1.958520
H      5.520259    4.263663   -5.302789
H      5.510583    2.521772   -5.059958
H      3.086042    2.730112   -2.701241
H      1.860148    0.833880   -2.117462
H      3.201675    0.067856   -1.264720
H      1.608255    2.544621   -0.442755
H      2.008791    0.044786    1.231486
H      0.430747   -0.402328   -0.549138
H     -0.416052    1.099855   -0.273409
H     -0.274071   -1.290204    1.642377
H     -1.660366   -2.742718    0.954562
H     -1.010630   -2.395851   -2.984828
H     -2.509222   -0.561308   -3.566118
H     -2.970325   -0.330914   -1.875524
H     -1.309508   -0.037006   -2.371340
H     -3.729428   -2.675190   -3.139079
H     -2.292926   -4.040592   -4.070234
H     -3.125769   -4.503444   -0.810565
H     -4.894440   -5.149902    0.220398
H     -5.602069   -7.477563    0.094822
H     -6.256216   -8.055866   -1.426387
H     -8.309153   -6.678566   -1.161983
H     -8.303169   -8.707136   -0.150509
H     -7.131596   -5.834882    1.541129
H     -9.399113   -6.035612    1.252765
H     -7.539021   -4.109088   -0.965292
H     -7.704588   -3.239285    1.152398
H     -4.102518   -1.608532   -0.398357
H     -5.085046   -2.851997    1.037049
H     -1.627748    1.424018    1.958277
H     -1.738247   -0.975104    3.837014
H     -3.034297   -0.374465    2.844998
H     -3.129903    1.744805    3.998367
H     -3.685675    0.943667    6.042469
H     -0.889934    0.777387    5.840147
H     -1.688761    2.322339    5.872159
H      0.546110    2.461706    4.822404
H     -0.735113    2.997327    3.743961
H      1.787975    0.367900    4.425543
H      1.377904   -0.750003    3.127203
H      0.338532   -0.609688    4.528876
H      0.431547    2.638760    1.648495
H      1.993305    3.327869    3.350836
H      2.916283    1.845130    3.221675
H      2.633190    4.074441    1.162602
H      4.086008    3.629589    2.042917
H      4.830855    0.443454    0.251681
H      5.362093    1.578421    1.501800
H      3.996000    0.528038    1.791207
H      3.747814    3.938386   -0.911069
H      6.157554    2.157210   -0.428400
H      5.894758    5.098368   -1.218640
H      6.134798    4.474480    0.417731
H      7.390911    4.245567   -0.802808
