87

C      3.837527   -1.990302   -6.048502
C      2.703577   -1.540314   -5.489343
C      1.349521   -1.977065   -5.973254
C      0.254499   -1.638073   -4.957650
C      0.631714   -1.966260   -3.471715
C      0.743270   -3.514944   -3.385743
C     -0.597853   -1.549223   -2.626620
C     -0.416343   -1.251526   -1.135420
C      0.987102   -0.777693   -0.650477
C      1.669395   -2.057901   -0.075059
C      0.853104    0.310486    0.526936
C     -0.064059   -0.106677    1.716857
O     -1.431173    0.131433    1.354624
C      0.239715    0.647654    3.030746
O     -0.860235    0.455426    3.957562
C     -0.858328   -0.705372    4.671640
C     -2.029364   -0.735461    5.604266
O     -0.030609   -1.596867    4.563182
C      0.573626    2.159590    2.833013
C     -0.628009    2.968449    2.193750
C     -1.901456    3.097828    3.029681
O     -0.198551    4.297081    1.864852
C      0.891639    2.706612    4.252274
O      1.018438    4.130904    4.314971
C      2.137931    4.768768    3.927755
O      2.326611    5.956428    4.168249
C      3.200094    3.981686    3.286722
C      3.090752    2.948147    2.439079
C      1.843149    2.283592    1.865383
C      2.203412    0.938066    1.035338
C      3.042845   -0.046546    1.902311
C      3.074645    1.353857   -0.192851
C      3.184573    0.317119   -1.317569
C      1.799203   -0.146790   -1.877209
C      1.082966    1.124094   -2.443876
O     -0.115894    1.357955   -2.385023
O      1.963752    1.984646   -3.036013
C      1.374590    3.183462   -3.545522
C      1.977377   -1.203231   -3.064251
O      2.933241   -2.184210   -2.579147
C      2.686386   -0.581817   -4.320285
H      3.818982   -2.681625   -6.886494
H      4.814042   -1.673371   -5.693561
H      1.349610   -3.055705   -6.170269
H      1.117780   -1.475010   -6.920202
H      0.019071   -0.567835   -5.045393
H     -0.665634   -2.164387   -5.245130
H     -0.153316   -3.993833   -3.798925
H      0.833237   -3.871457   -2.358802
H      1.593802   -3.906315   -3.951982
H     -1.389024   -2.307014   -2.721994
H     -1.058409   -0.664727   -3.082880
H     -1.168008   -0.489398   -0.904215
H     -0.734484   -2.133179   -0.562829
H      1.584770   -2.910071   -0.746059
H      2.731536   -1.936494    0.130814
H      1.202457   -2.397839    0.852508
H      0.323298    1.143074    0.046685
H     -0.002224   -1.177410    1.916905
H     -1.980298   -0.127029    2.115424
H      1.121989    0.205002    3.504328
H     -2.959338   -0.709429    5.030922
H     -1.976960    0.112355    6.291969
H     -2.003554   -1.659514    6.188740
H     -0.903732    2.522115    1.235769
H     -2.380506    2.136183    3.218489
H     -2.633165    3.722311    2.503252
H     -1.713658    3.600433    3.982988
H     -0.954810    4.773544    1.480204
H      0.078505    2.469621    4.947203
H      1.776188    2.227119    4.692581
H      4.189270    4.379298    3.501636
H      4.044288    2.590719    2.052624
H      1.549093    2.983890    1.070872
H      3.900551   -0.450493    1.354600
H      3.456215    0.427310    2.797501
H      2.465961   -0.905707    2.253112
H      4.096013    1.593221    0.128093
H      2.684862    2.286128   -0.617543
H      3.780387   -0.529398   -0.965103
H      3.797142    0.761957   -2.110924
H      2.171978    3.793689   -3.978271
H      0.651339    2.948745   -4.332574
H      0.902857    3.751538   -2.737698
H      3.253447   -2.701559   -3.339863
H      2.177374    0.318462   -4.674307
H      3.714973   -0.297145   -4.068947
