64

C     -4.094643    3.604966    4.559718
C     -4.749327    4.034655    3.255852
C     -4.477150    3.077753    2.092325
C     -5.098903    1.691089    2.293148
C     -4.991550    0.797551    1.049894
C     -3.576621    0.360443    0.732916
C     -2.893488    1.053261   -0.278443
C     -1.586825    0.720504   -0.640801
C     -0.882307   -0.274710    0.040520
C     -1.596259   -1.020837    0.999643
O     -0.974046   -2.125850    1.529818
C     -2.926156   -0.710532    1.382484
C     -3.659472   -1.581087    2.381188
O     -2.788847   -1.901653    3.476189
O     -3.471327   -2.933000    4.243045
C      0.552920   -0.581253   -0.354050
C      1.543812   -0.795831    0.777944
C      2.865834   -0.547962    0.674229
C      3.811173   -0.769883    1.828652
O      4.751476   -1.778291    1.446991
C      5.673073   -2.059527    2.404976
C      6.599525   -3.133609    1.923352
O      5.749612   -1.521745    3.500509
C      3.481454   -0.003220   -0.592925
C      2.500659    0.123705   -1.766473
C      1.111248    0.540955   -1.263497
C      0.085476    0.919796   -2.346886
C     -0.295627   -0.219966   -3.305403
C      0.595372    2.099635   -3.194474
O     -1.104116    1.427719   -1.709030
H     -3.017723    3.458813    4.429511
H     -4.242045    4.373936    5.324887
H     -4.527422    2.674534    4.938607
H     -5.829718    4.141230    3.407462
H     -4.368227    5.026674    2.985371
H     -4.885475    3.526039    1.178211
H     -3.394274    2.989112    1.947813
H     -4.633200    1.197743    3.152824
H     -6.162585    1.812480    2.532709
H     -5.623525   -0.089946    1.174932
H     -5.422904    1.321691    0.186743
H     -3.388942    1.859026   -0.818092
H     -1.426162   -2.378753    2.357254
H     -4.536950   -1.092121    2.808105
H     -3.976567   -2.503014    1.879494
H     -3.582614   -2.410436    5.059221
H      0.512369   -1.525401   -0.915860
H      1.164403   -1.194019    1.714212
H      4.335725    0.166684    2.053882
H      3.270374   -1.097350    2.724919
H      6.032861   -4.043022    1.708240
H      7.132071   -2.791600    1.032402
H      7.332625   -3.356768    2.703806
H      3.889474    0.991128   -0.370224
H      4.323323   -0.630189   -0.908567
H      2.438142   -0.836571   -2.293633
H      2.909686    0.848243   -2.477446
H      1.242799    1.442360   -0.640379
H     -0.762918   -1.062510   -2.786817
H     -1.037673    0.125678   -4.035132
H      0.573621   -0.594081   -3.855118
H      1.438495    1.820928   -3.833415
H      0.901777    2.936008   -2.555614
H     -0.202143    2.486058   -3.840749
