39

C     -2.575821   -1.082815    2.498679
C     -2.181201   -1.662602    1.162418
C     -2.697385   -3.071384    0.975730
C     -1.439973   -0.998858    0.241589
C     -0.807971    0.363828    0.429929
C      0.712053    0.388169    0.068454
C      1.464615   -0.493514    1.095823
C      0.896323   -0.230075   -1.317102
C      0.022218   -1.106038   -1.841569
C     -1.191155   -1.574760   -1.125295
O     -1.951287   -2.354590   -1.687402
C      2.081868    0.254848   -2.103037
C      2.000845    1.762307   -2.364836
C      1.180999    2.534434   -1.319430
O     -0.171471    2.674804   -1.759523
C      1.211664    1.891067    0.087988
C      2.604427    2.111466    0.703399
H     -1.954757   -1.509052    3.292921
H     -3.623416   -1.320524    2.716616
H     -2.500474    0.005557    2.543479
H     -2.716619   -3.600018    1.935948
H     -3.716719   -3.053233    0.578002
H     -2.061837   -3.675237    0.322586
H     -1.367822    1.074335   -0.190922
H     -0.911727    0.721788    1.458951
H      2.538486   -0.544219    0.885508
H      1.332770   -0.110443    2.113990
H      1.105658   -1.529353    1.092234
H      0.148596   -1.527063   -2.834024
H      2.179559   -0.270885   -3.060780
H      2.996607    0.020383   -1.545593
H      1.579873    1.932930   -3.363800
H      3.025461    2.153929   -2.387429
H      1.566588    3.559101   -1.263729
H     -0.440734    1.856558   -2.211141
H      0.515724    2.461500    0.719670
H      2.619477    1.826799    1.760104
H      2.878066    3.171956    0.662756
H      3.385739    1.550821    0.183156
