78

C     -0.256383   -2.552868    3.446820
C     -1.383174   -3.374908    4.055395
C     -1.510002   -3.213213    5.572899
C     -1.925116   -1.821662    6.066536
C     -3.433062   -1.634826    6.276397
C     -4.309975   -1.689829    5.023962
C     -3.978454   -0.594000    4.008360
C     -4.948718   -0.545166    2.822812
C     -4.875530   -1.787321    1.931203
C     -5.800925   -1.718802    0.711369
C     -5.533247   -0.574145   -0.271451
C     -4.113783   -0.581526   -0.844440
C     -3.936232    0.513485   -1.899439
C     -2.563510    0.486475   -2.578319
C     -1.407802    0.808190   -1.628009
C     -0.076535    0.882640   -2.379202
C      1.080792    1.195202   -1.429038
C      2.411874    1.268814   -2.178741
C      3.569063    1.580709   -1.228220
C      4.901059    1.654010   -1.979206
C      6.053924    1.978482   -1.031086
C      7.448778    1.903827   -1.665995
C      7.770025    2.906044   -2.778879
C      7.413635    2.446286   -4.176631
C      7.253741    3.754332   -4.912383
C      6.792378    4.676097   -3.823977
O      6.266109    5.763362   -3.993810
O      7.079216    4.142806   -2.599965
H     -0.152130   -2.790956    2.383215
H     -0.448517   -1.479525    3.526264
H      0.698075   -2.770881    3.936232
H     -1.185507   -4.432658    3.842019
H     -2.321955   -3.131127    3.552631
H     -2.210958   -3.964990    5.955425
H     -0.535463   -3.455752    6.016614
H     -1.522280   -1.027810    5.431550
H     -1.457209   -1.675604    7.049590
H     -3.788935   -2.395924    6.982312
H     -3.591513   -0.667724    6.770716
H     -4.237298   -2.682208    4.570424
H     -5.355260   -1.574683    5.337752
H     -4.008151    0.379305    4.513814
H     -2.959327   -0.718943    3.627816
H     -4.702146    0.345788    2.234701
H     -5.973700   -0.410962    3.188610
H     -5.164494   -2.670767    2.512108
H     -3.841816   -1.956789    1.609511
H     -6.839524   -1.643490    1.056919
H     -5.725823   -2.670365    0.170049
H     -6.253581   -0.661086   -1.094753
H     -5.734803    0.389791    0.209459
H     -3.902615   -1.560479   -1.290809
H     -3.393701   -0.426751   -0.034986
H     -4.101426    1.497227   -1.443373
H     -4.702745    0.392135   -2.674907
H     -2.401132   -0.495216   -3.039753
H     -2.571722    1.220757   -3.393470
H     -1.335457    0.039912   -0.850214
H     -1.599614    1.763908   -1.125599
H     -0.134294    1.656394   -3.154387
H      0.112187   -0.071032   -2.887050
H      1.138486    0.421804   -0.653424
H      0.891807    2.148866   -0.921297
H      2.354449    2.042515   -2.954050
H      2.600749    0.315294   -2.686785
H      3.380960    2.534593   -0.720497
H      3.625726    0.806923   -0.452975
H      5.091828    0.697310   -2.479552
H      4.825352    2.425336   -2.752708
H      6.033524    1.268680   -0.193956
H      5.900161    2.971334   -0.590916
H      7.657729    0.882979   -2.008384
H      8.159616    2.093376   -0.849857
H      8.845654    3.125354   -2.740738
H      8.179635    1.801109   -4.617223
H      6.469526    1.894756   -4.201431
H      6.508858    3.679141   -5.707773
H      8.206789    4.117379   -5.307495
