40

C     -4.047153    2.611454   -1.957237
O     -3.783275    2.235355   -3.302800
C     -2.516345    1.801305   -3.582926
C     -2.314413    1.401992   -4.905457
C     -1.067357    0.939667   -5.325994
C     -0.008585    0.872051   -4.421657
C     -0.192030    1.261294   -3.088595
C      0.959089    1.219600   -2.112017
O      0.524016    0.576100   -0.912667
C      1.434250    0.637111    0.088542
O      2.543367    1.142047    0.051613
C      0.854704   -0.028371    1.264455
C     -0.076024    0.667397    2.057031
O     -0.401295    1.938086    1.659650
C     -1.263312    2.691615    2.502418
C     -0.605430    0.027565    3.179567
C     -0.208047   -1.272864    3.501267
C      0.720254   -1.951439    2.707326
C      1.264914   -1.335258    1.578906
O      2.165180   -1.922639    0.730236
C      2.683670   -3.194832    1.095541
C     -1.452844    1.735073   -2.680834
H     -5.098033    2.910000   -1.893910
H     -3.899451    1.768549   -1.273823
H     -3.438858    3.472699   -1.661712
H     -3.137280    1.452398   -5.613993
H     -0.923007    0.633557   -6.358583
H      0.959339    0.512442   -4.763720
H      1.797667    0.652105   -2.532530
H      1.280940    2.248256   -1.907372
H     -2.257889    2.236837    2.554068
H     -1.375693    3.686526    2.060904
H     -0.831557    2.817055    3.500843
H     -1.331327    0.509391    3.826614
H     -0.627532   -1.763326    4.377407
H      0.990885   -2.962138    2.995709
H      3.427983   -3.480150    0.345892
H      3.187813   -3.153971    2.066771
H      1.896556   -3.955754    1.089076
H     -1.571668    2.041929   -1.645796
