45

C     -2.342061   -1.028629    3.081067
C     -0.960062   -1.082123    3.650717
C      0.158955   -1.512537    3.037052
C      1.487407   -1.593012    3.724938
C      0.186507   -1.947876    1.618306
O      0.690785   -2.993409    1.238314
O     -0.316538   -0.969819    0.828397
C     -0.177057   -1.205094   -0.583041
C     -0.155347    0.113712   -1.320121
C     -0.865505    0.265988   -2.514588
C     -0.866678    1.488467   -3.193249
C     -0.125183    2.569318   -2.712361
C      0.632280    2.426841   -1.551431
C      1.436541    3.519568   -1.027064
C      2.158427    3.339365    0.082895
C      2.181805    2.058427    0.807435
O      2.856284    1.919489    1.820873
O      1.413458    1.032751    0.277998
C      0.615924    1.202432   -0.878587
O     -1.607986   -0.722675   -3.100358
C     -1.411552   -2.069675   -2.618861
C     -0.164675   -2.669946   -3.289646
C     -2.640157   -2.859765   -3.101795
C     -1.335404   -2.094857   -1.078004
O     -2.591283   -1.656897   -0.514917
H     -2.614039    0.004958    2.848243
H     -3.054639   -1.410853    3.819398
H     -2.456574   -1.639100    2.182889
H     -0.887486   -0.756660    4.687104
H      1.835309   -2.630199    3.770820
H      2.233193   -0.999520    3.185422
H      1.441246   -1.212376    4.750764
H      0.786665   -1.688195   -0.794414
H     -1.441910    1.594655   -4.110654
H     -0.138710    3.507998   -3.260708
H      1.436902    4.472303   -1.545408
H      2.767010    4.130107    0.504175
H      0.005500   -3.700810   -2.962144
H     -0.274722   -2.667805   -4.380532
H      0.739763   -2.089492   -3.083081
H     -3.573016   -2.405232   -2.749910
H     -2.700110   -2.855349   -4.196644
H     -2.607770   -3.900232   -2.762320
H     -1.194652   -3.119288   -0.715587
H     -2.747058   -0.749383   -0.834892
