38

C      0.978564   -1.753420    3.293070
C      1.638042   -1.709391    1.910078
C      2.402164   -3.018284    1.669328
O      2.590256   -0.637171    1.905725
C      0.618115   -1.469517    0.767847
O     -0.356678   -2.523328    0.729943
C     -0.111617   -0.120968    0.869112
O     -0.929296    0.009562   -0.314294
C     -1.604684    1.212224   -0.290630
C     -2.818379    1.341382    0.419094
C     -3.627339    0.495603    1.227621
C     -4.701756    1.253060    1.632503
O     -4.617579    2.510499    1.126036
C     -3.478295    2.565266    0.382284
C     -3.030611    3.677873   -0.321640
C     -1.843484    3.500009   -1.037820
O     -1.388951    4.620722   -1.771993
C     -0.229697    4.573236   -2.532666
O      0.179683    5.536168   -3.169912
C      0.500122    3.295663   -2.543886
C      0.087273    2.228263   -1.854344
C     -1.128128    2.299035   -1.049721
H      0.529444   -0.788665    3.551138
H      0.208069   -2.528276    3.354486
H      1.724634   -1.952494    4.071533
H      1.738322   -3.888565    1.683207
H      3.176688   -3.165701    2.430926
H      2.921882   -2.991623    0.704770
H      3.257485   -0.829780    2.588652
H      1.144457   -1.494921   -0.195382
H     -0.980571   -2.279748    0.019161
H      0.605110    0.706840    0.918300
H     -0.758128   -0.109652    1.753467
H     -3.444659   -0.538901    1.481879
H     -5.568500    1.055700    2.248224
H     -3.578023    4.611751   -0.322638
H      1.397564    3.271092   -3.150009
H      0.643644    1.297531   -1.886499
