47

C     -2.450912   -1.072483    1.865106
C     -2.128505   -1.743023    0.744651
C     -2.306789   -3.236889    0.674764
C     -1.554439   -1.007904   -0.476633
C     -2.409257   -1.271894   -1.754315
C     -1.910347   -0.839069   -3.155685
C     -1.182317    0.443832   -3.334198
C     -0.998048    1.487272   -2.532228
C      0.243339    2.189118   -2.933692
C      0.302214    3.664636   -2.561064
C      0.832356    4.094112   -1.179232
C      0.867464    5.612946   -1.089580
C      1.282348    3.414328   -0.096283
C      1.344514    2.008315    0.134595
C      2.214009    1.286631    0.947404
C      1.876071   -0.103025    0.864680
C      2.555160   -1.234949    1.536795
C      0.796364   -0.160926    0.009088
O      0.468359    1.096765   -0.373757
C     -0.027289   -1.261706   -0.602777
O      0.296555    1.920366   -4.332912
C     -0.352698    0.730382   -4.522437
O     -0.290651    0.040363   -5.523488
H     -2.852610   -1.578113    2.738187
H     -2.317369    0.002896    1.944335
H     -1.403311   -3.725217    0.298639
H     -3.143238   -3.496443    0.019122
H     -2.519271   -3.667069    1.659817
H     -1.709867    0.055291   -0.264612
H     -2.621974   -2.345003   -1.835867
H     -3.387895   -0.797123   -1.593178
H     -2.769065   -0.849825   -3.839164
H     -1.246327   -1.640643   -3.507884
H     -1.476807    1.651073   -1.580586
H      1.138707    1.703111   -2.532120
H     -0.695150    4.106106   -2.695709
H      0.937968    4.157935   -3.310179
H      1.233379    5.976073   -0.123271
H     -0.138672    6.021887   -1.231432
H      1.524177    6.023244   -1.864106
H      1.662847    3.999076    0.740923
H      3.021539    1.715151    1.525862
H      1.844948   -1.799020    2.149907
H      2.990258   -1.914413    0.797007
H      3.360356   -0.882782    2.189365
H      0.272437   -1.341406   -1.652597
H      0.258052   -2.213942   -0.141461
