27

C     -4.821428   -2.324413    2.070473
C     -3.418343   -2.313163    1.547588
O     -2.444297   -2.725420    2.161788
O     -3.391522   -1.798339    0.287241
C     -2.076757   -1.650703   -0.254190
C     -1.357450   -0.430171    0.314392
O     -1.925923    0.393668    1.036018
C      0.079712   -0.208173   -0.028184
C      0.760357   -1.047476   -0.921098
C      2.107099   -0.815257   -1.225707
C      2.797868    0.250696   -0.639581
C      4.231757    0.517185   -0.990904
C      2.115601    1.100677    0.236615
C      0.773595    0.871181    0.540774
O      0.200401    1.760634    1.411780
H     -5.440072   -2.984043    1.457097
H     -4.821852   -2.697869    3.098491
H     -5.224789   -1.308603    2.071555
H     -2.195044   -1.504616   -1.332746
H     -1.495719   -2.564177   -0.087152
H      0.275567   -1.890483   -1.403730
H      2.616575   -1.475815   -1.925372
H      4.760486    0.978972   -0.150414
H      4.287018    1.186331   -1.855019
H      4.754751   -0.414614   -1.230548
H      2.623375    1.948709    0.691185
H     -0.740735    1.500867    1.535049
