44

C     -0.441692    5.240528   -3.106141
O     -1.472087    4.700581   -2.287046
C     -1.251628    3.465475   -1.743075
C     -2.311282    2.960281   -0.999175
C     -2.224664    1.702293   -0.392439
O     -3.250623    1.155984    0.350269
C     -4.450010    1.912611    0.488130
C     -1.042211    0.903593   -0.514658
C     -0.867494   -0.400163    0.052215
O     -1.893542   -0.981048    0.758101
C      0.316618   -1.142044   -0.110799
C      1.370354   -0.593752   -0.837204
C      1.231002    0.688300   -1.389631
O      2.265862    1.221154   -2.134584
C      3.285865    1.739329   -1.277652
C      0.037156    1.437260   -1.262431
C     -0.092639    2.707961   -1.869036
O      2.552792   -1.242911   -1.087285
C      2.848438   -2.366571   -0.254854
C      3.438371   -1.893740    1.076285
C      1.659710   -3.306850   -0.099831
C      1.260182   -3.980596   -1.411071
C      0.491340   -2.517081    0.436337
O     -0.256466   -3.017181    1.269949
H     -0.785160    6.210348   -3.478808
H      0.472233    5.410933   -2.527661
H     -0.249009    4.599835   -3.973038
H     -3.200108    3.577219   -0.916590
H     -4.263197    2.855155    1.012784
H     -4.923661    2.081680   -0.484322
H     -5.143917    1.325639    1.097532
H     -2.637816   -0.352115    0.800066
H      3.959853    2.343744   -1.892156
H      3.874293    0.934184   -0.827844
H      2.869533    2.386974   -0.497619
H      0.743075    3.088745   -2.449649
H      3.647527   -2.913868   -0.770944
H      4.310329   -1.255494    0.895736
H      3.751364   -2.743140    1.691222
H      2.728147   -1.292503    1.652800
H      1.912900   -4.084541    0.631701
H      0.980935   -3.255285   -2.182543
H      0.398425   -4.639727   -1.258152
H      2.084203   -4.587702   -1.799929
