35

C     -1.771999   -4.992450   -1.794894
O     -0.375637   -4.826637   -1.580406
C      0.043302   -3.609299   -1.119756
C      1.422787   -3.504095   -0.919002
C      1.980251   -2.312990   -0.460538
O      3.339441   -2.288342   -0.304272
C      1.160587   -1.214567   -0.191767
C     -0.216565   -1.321035   -0.368731
C     -0.774493   -2.510593   -0.847512
O     -1.093368   -0.298698   -0.132660
C     -0.617496    0.682076    0.808609
C     -1.657612    1.792598    0.882325
C     -2.379762    2.204198   -0.250036
C     -3.316862    3.235618   -0.161325
C     -3.539730    3.874094    1.056445
C     -2.824243    3.484605    2.186219
C     -1.887873    2.452672    2.100069
C      0.755542    1.233475    0.407791
O      1.290624    2.107423    1.406797
C      1.718319    0.073219    0.248451
O      2.930077    0.186850    0.441524
H     -1.935999   -6.012353   -2.155830
H     -2.137157   -4.303870   -2.563988
H     -2.331182   -4.875415   -0.860741
H      2.067199   -4.354925   -1.128057
H      3.599887   -1.399572    0.026011
H     -1.849933   -2.551129   -0.988987
H     -0.569581    0.200017    1.796167
H     -2.221941    1.721090   -1.211939
H     -3.872527    3.541483   -1.043981
H     -4.267567    4.678249    1.124312
H     -2.990155    3.988121    3.135101
H     -1.326571    2.174419    2.990177
H      0.717943    1.770959   -0.547065
H      2.243707    2.200199    1.208773
