29

C      0.875296    3.076266    2.034577
C     -0.368080    2.193110    2.131424
C     -1.616322    2.959089    1.694968
C     -0.200648    0.940833    1.335100
C     -0.184358   -0.396318    1.676958
C      0.013900   -1.122884    0.473050
C      0.124943   -2.484601    0.128166
C      0.324516   -2.824483   -1.218785
C      0.446870   -4.212662   -1.637514
C      0.636386   -4.500337   -2.928678
C      0.728920   -3.459457   -3.966696
O      0.903240   -3.761579   -5.141411
O      0.609591   -2.142701   -3.545493
C      0.408854   -1.818470   -2.184617
C      0.303221   -0.460157   -1.878263
C      0.106086   -0.167087   -0.533059
O     -0.023910    1.082395   -0.010426
H      0.769959    3.964604    2.666503
H      1.052743    3.413422    1.006982
H      1.768285    2.533391    2.364226
H     -0.498521    1.913341    3.184953
H     -2.510951    2.332144    1.780958
H     -1.765887    3.845345    2.320870
H     -1.543187    3.291344    0.653155
H     -0.301356   -0.797398    2.673750
H      0.055883   -3.247183    0.897926
H      0.382329   -4.998507   -0.892875
H      0.732021   -5.521199   -3.278103
H      0.369066    0.316026   -2.629136
