167

C     -3.461419   -1.973088    5.021903
C     -3.391698   -2.911210    3.826800
C     -2.775802   -2.218439    2.610215
C     -2.648166   -3.147294    1.391881
C     -1.245748   -3.759831    1.217771
C     -0.817365   -4.772202    2.282042
C      0.044001   -4.154544    3.386931
C      0.446821   -5.200688    4.428162
C      1.289362   -4.575979    5.542775
C      1.703382   -5.623143    6.578687
C      2.434451   -5.028895    7.785994
C      3.787541   -4.408633    7.434661
C      4.518493   -3.934958    8.685886
C      5.849079   -3.339017    8.329960
O      6.928851   -3.903156    8.375133
O      5.754744   -2.063200    7.910292
O     -2.867337   -2.363138    0.206051
C     -4.249573   -2.255761   -0.148223
O     -4.684240   -3.497523   -0.708936
C     -6.116823   -3.552350   -0.815187
C     -6.448455   -4.766592   -1.675788
C     -6.699025   -2.246802   -1.405407
O     -7.244519   -1.478515   -0.324376
C     -5.611837   -1.429862   -2.126431
O     -5.195544   -2.112988   -3.316848
C     -4.399004   -1.138821   -1.212524
O     -4.604508    0.141254   -0.580392
C     -3.386006    0.830777   -0.269366
O     -3.541900    1.483813    0.996169
C     -4.580256    2.480063    1.058864
C     -5.836740    1.870650    1.692871
O     -5.496092    1.244375    2.933570
C     -4.874621    3.148542   -0.287574
O     -5.420842    4.456499   -0.096728
C     -3.567371    3.232297   -1.068418
O     -3.784023    3.999765   -2.268719
C     -3.057306    1.826084   -1.424254
O     -1.659343    1.996094   -1.729137
C     -1.084139    0.928616   -2.478000
O     -0.986920   -0.274274   -1.731829
C      0.116154   -0.396301   -0.826010
C      0.944261   -1.599649   -1.274368
C      0.991989    0.857637   -0.624571
O      0.287582    1.811155    0.188023
C      0.691262    1.846324    1.557772
O      0.057139    0.776744    2.259180
C     -0.187902    0.990354    3.651991
C     -1.660060    1.332963    3.873744
C      0.792602    1.992754    4.276971
O      0.603921    2.149991    5.687375
C      0.701454    3.366384    3.597332
O     -0.282988    4.173984    4.266733
C      0.362231    3.257861    2.101137
O      1.087798    4.270562    1.369902
C      1.328477    1.587797   -1.941784
O      2.623450    1.181262   -2.454820
C      3.686414    2.076010   -2.069279
O      3.781911    2.054946   -0.642673
C      4.861041    2.838218   -0.115417
C      4.763125    2.830222    1.416760
O      3.675697    3.661226    1.847302
C      6.184583    2.240836   -0.584962
O      7.294811    2.983228   -0.077272
C      6.215909    2.279778   -2.107336
O      7.434590    1.657990   -2.555369
C      5.003078    1.584814   -2.736233
O      5.137474    1.878480   -4.139734
C      4.214542    1.215720   -5.004377
O      3.064529    2.049086   -5.135078
C      2.296215    1.891020   -6.338506
C      2.528478    3.100453   -7.239345
C      2.526727    0.541935   -7.041642
O      2.131828   -0.525174   -6.159320
C      4.005991    0.316517   -7.374065
O      4.308846    0.808170   -8.686245
C      4.936250    0.987918   -6.350838
O      6.132169    0.194830   -6.212556
C      0.279893    1.347451   -3.047273
O      0.748065    0.358859   -3.988679
H     -2.461318   -1.638366    5.315629
H     -4.067080   -1.090232    4.793644
H     -3.913965   -2.483018    5.878034
H     -2.817256   -3.798165    4.106906
H     -4.404586   -3.250826    3.580227
H     -1.796162   -1.798014    2.863911
H     -3.400439   -1.352110    2.360666
H     -3.384309   -3.959741    1.434865
H     -1.240872   -4.275084    0.246752
H     -0.496531   -2.965384    1.114650
H     -0.217739   -5.548323    1.788520
H     -1.690234   -5.283205    2.702914
H      0.946201   -3.716127    2.942741
H     -0.490466   -3.341454    3.885426
H     -0.453755   -5.654314    4.859633
H      1.014503   -6.003888    3.942964
H      2.178603   -4.112227    5.101509
H      0.715741   -3.780036    6.032938
H      2.335039   -6.383798    6.103935
H      0.807277   -6.140252    6.943805
H      1.796954   -4.277325    8.267491
H      2.587341   -5.829708    8.520220
H      3.649998   -3.560251    6.754559
H      4.406271   -5.141692    6.902329
H      3.931933   -3.190170    9.235899
H      4.694808   -4.768292    9.375754
H      6.682482   -1.811508    7.717253
H     -4.832345   -2.013555    0.749764
H     -6.516984   -3.728775    0.191361
H     -6.015838   -5.672702   -1.237473
H     -6.024630   -4.673525   -2.680760
H     -7.530144   -4.906802   -1.763256
H     -7.530276   -2.475194   -2.081859
H     -7.599136   -0.650107   -0.694486
H     -6.045705   -0.477241   -2.453329
H     -4.618858   -2.853478   -3.042545
H     -3.503034   -1.090420   -1.843289
H     -2.581917    0.119019   -0.104547
H     -4.203841    3.232510    1.763878
H     -6.281489    1.100846    1.056596
H     -6.593899    2.635505    1.889513
H     -4.639397    0.805102    2.767481
H     -5.617222    2.586886   -0.866841
H     -5.260856    4.923681   -0.942364
H     -2.820905    3.793464   -0.490792
H     -2.903291    4.080444   -2.682156
H     -3.554656    1.499270   -2.347267
H     -1.740185    0.707555   -3.328755
H     -0.333437   -0.662594    0.136186
H      1.418104   -1.430590   -2.244704
H      1.726081   -1.834418   -0.545377
H      0.303793   -2.480854   -1.390577
H      1.914527    0.554397   -0.118155
H      1.776337    1.700759    1.617682
H     -0.029115    0.020063    4.139204
H     -1.955909    2.254016    3.366019
H     -1.892259    1.431736    4.938227
H     -2.294453    0.546180    3.457648
H      1.810348    1.611168    4.122571
H      0.677917    1.268401    6.095120
H      1.648527    3.897185    3.747505
H     -0.200961    3.939475    5.214050
H     -0.697049    3.479650    1.929571
H      2.032539    4.014473    1.413017
H      1.340835    2.670182   -1.749519
H      3.442124    3.086958   -2.419561
H      4.748047    3.874240   -0.461603
H      5.672984    3.202620    1.897276
H      4.558697    1.820217    1.786430
H      4.034926    4.570469    1.888308
H      6.293362    1.205879   -0.237619
H      8.068303    2.670698   -0.592260
H      6.279326    3.320992   -2.450788
H      7.371686    1.639029   -3.533108
H      5.108389    0.499019   -2.610011
H      3.941595    0.248362   -4.566811
H      1.248434    1.935606   -6.020714
H      3.578435    3.216400   -7.519680
H      2.252339    4.019213   -6.709797
H      1.927638    3.034452   -8.151468
H      1.907950    0.468966   -7.942788
H      1.251504   -0.306857   -5.783430
H      4.206826   -0.761887   -7.406508
H      5.258152    0.633097   -8.833215
H      5.284611    1.953173   -6.736172
H      5.889014   -0.634025   -5.762603
H      0.168704    2.277440   -3.617420
H      1.719936    0.350602   -3.850773
