81

C     -2.221554    4.322329    0.436713
C     -1.999483    3.052309    1.194499
C     -1.508231    2.919220    2.443726
C     -1.064693    4.039125    3.338744
C     -1.348120    1.567856    3.063345
O     -1.285588    1.387048    4.269243
O     -1.252281    0.603970    2.111919
C     -0.966814   -0.748987    2.567061
C     -1.811134   -1.743653    1.681415
C     -3.192237   -1.078395    1.402238
C     -2.120551   -3.028801    2.493542
C     -1.055497   -2.082496    0.316551
C     -1.937179   -3.016369   -0.569412
C     -1.800854   -2.809475   -2.057607
O     -1.370672   -3.653830   -2.830427
O     -2.259017   -1.578305   -2.412542
C     -2.255825   -1.340166   -3.821098
C      0.452935   -2.590908    0.526687
C      0.665751   -4.082239    0.191389
C      0.824567   -2.387920    1.996282
O      1.307213   -3.261389    2.719031
C      0.565716   -0.981656    2.516016
O      1.146118   -0.821912    3.807152
C      1.315969   -0.034747    1.605350
C      1.778907   -0.331801    0.374283
C      1.562687   -1.732363   -0.210405
C      1.436288   -1.688157   -1.742821
C      1.027298   -0.315393   -2.270386
C      2.059041    0.805660   -1.937196
C      3.235287    0.658204   -2.941522
C      2.629705    0.606760   -0.494349
C      2.983417    1.966988    0.108289
C      1.771415    2.847866    0.190581
O      1.593520    3.635239    1.112709
O      0.891443    2.735012   -0.828040
C      1.325710    2.190517   -2.091467
C      1.988090    3.244346   -2.946578
C      1.881886    3.370815   -4.367623
C      2.626396    4.468050   -4.726875
O      3.172602    5.043779   -3.629161
C      2.772032    4.314797   -2.557312
H     -1.562527    4.353295   -0.436261
H     -2.049362    5.223880    1.027184
H     -3.256467    4.357596    0.081181
H     -2.281824    2.162984    0.634438
H     -0.958185    4.991964    2.815558
H     -1.781557    4.179544    4.154365
H     -0.084889    3.814799    3.775369
H     -1.315930   -0.854789    3.602972
H     -3.116131   -0.301297    0.634205
H     -3.949088   -1.796702    1.072679
H     -3.594403   -0.617840    2.312898
H     -1.230815   -3.591678    2.777274
H     -2.650386   -2.780519    3.421095
H     -2.767581   -3.712537    1.933642
H     -0.987393   -1.121462   -0.206505
H     -1.777642   -4.074824   -0.346156
H     -3.005033   -2.873742   -0.383636
H     -1.249866   -1.460927   -4.234543
H     -2.577011   -0.308780   -3.990442
H     -2.961876   -2.011318   -4.319658
H      0.481188   -4.305722   -0.862378
H      0.019777   -4.723955    0.801092
H      1.696152   -4.394660    0.401892
H      1.341474   -1.720974    4.139417
H      1.488096    0.939380    2.057348
H      2.517388   -2.249895   -0.016459
H      2.401635   -1.968864   -2.182225
H      0.744072   -2.443734   -2.109119
H      0.879583   -0.374856   -3.356088
H      0.048747   -0.056625   -1.849150
H      3.735287   -0.311059   -2.839496
H      4.003706    1.421505   -2.778267
H      2.892202    0.726914   -3.979174
H      3.590811    0.075398   -0.574743
H      3.748339    2.476035   -0.486877
H      3.399486    1.843205    1.114861
H      0.377743    1.998328   -2.614044
H      1.331225    2.733623   -5.046047
H      2.849925    4.949574   -5.668873
H      3.118305    4.687454   -1.602472
