37

C      0.582546    1.964366    4.461416
O      0.553290    3.181063    3.724809
C     -0.232558    3.205536    2.605607
C     -0.180818    4.397936    1.880893
C     -0.925528    4.553216    0.711611
C     -1.735079    3.513128    0.259548
C     -1.811503    2.315290    0.981481
C     -2.652504    1.170988    0.480084
O     -1.847339    0.377559   -0.401783
C     -1.336901   -0.761144    0.134684
O     -1.492835   -1.158090    1.276135
C     -0.519493   -1.430672   -0.901056
C      0.427476   -0.709988   -1.647113
O      0.638489    0.637810   -1.527126
C      1.237101   -1.361066   -2.574296
C      1.100129   -2.732013   -2.773635
C      0.152910   -3.456401   -2.045289
C     -0.658847   -2.816990   -1.099132
O     -1.637443   -3.457982   -0.385012
C     -1.540306   -4.872612   -0.273805
C     -1.047945    2.167160    2.152603
H      0.962734    1.139843    3.849112
H      1.270660    2.099316    5.301501
H     -0.404183    1.729979    4.874211
H      0.451753    5.210978    2.228905
H     -0.869102    5.484240    0.153696
H     -2.303552    3.642174   -0.659073
H     -3.500602    1.551883   -0.100300
H     -3.082966    0.594663    1.307932
H     -0.077498    1.033384   -0.994199
H      1.972383   -0.797029   -3.142902
H      1.727571   -3.237423   -3.504134
H      0.062453   -4.518828   -2.249216
H     -1.804236   -5.355341   -1.220036
H     -2.264571   -5.198808    0.478815
H     -0.545514   -5.182158    0.064209
H     -1.106404    1.223951    2.689635
