69

C     -4.488365    3.948393   -0.562370
C     -3.949230    2.601482   -0.064576
C     -3.678200    2.710241    1.443144
C     -4.905540    1.420494   -0.407479
C     -5.240865    1.357927   -1.905450
C     -4.365419    0.103281    0.120402
C     -3.636696   -0.796742   -0.560877
C     -3.114966   -2.080909    0.039551
C     -3.384135   -3.237261   -0.928959
C     -1.667106   -1.938597    0.585655
C     -1.099469   -3.254734    1.148355
C      0.377806   -2.974856    1.414126
C      0.689173   -1.743714    0.598031
C      1.777768   -0.959963    0.736716
C      2.888795   -1.295084    1.613527
C      4.063622   -0.648301    1.584850
C      4.374242    0.409910    0.635076
C      5.493456    1.137081    0.787671
C      5.853789    2.213531   -0.163110
O      6.910745    2.821694   -0.007419
C      4.938262    2.490939   -1.329070
C      3.500883    2.088923   -1.020799
C      3.369635    0.630340   -0.507251
C      3.711537   -0.353320   -1.654636
C      1.914349    0.394819    0.041131
C      0.799404    0.675034   -0.987479
C     -0.554289    0.125945   -0.528182
C     -0.501802   -1.398014   -0.294053
C     -0.343524   -2.134406   -1.638324
H     -4.534368    3.981825   -1.655044
H     -3.836221    4.770491   -0.247415
H     -5.491454    4.143134   -0.168301
H     -2.984702    2.429293   -0.561314
H     -3.155331    1.827141    1.823374
H     -3.042580    3.575139    1.662823
H     -4.611302    2.825845    2.004906
H     -5.859544    1.588253    0.112304
H     -5.866736    2.205731   -2.202673
H     -5.805561    0.450430   -2.148049
H     -4.336768    1.375349   -2.523731
H     -4.593041   -0.098480    1.167085
H     -3.383152   -0.611397   -1.602062
H     -3.736220   -2.307757    0.919671
H     -4.448014   -3.271132   -1.194974
H     -3.146818   -4.205305   -0.478977
H     -2.827667   -3.145568   -1.863851
H     -1.753617   -1.252553    1.446218
H     -1.180812   -4.081663    0.435977
H     -1.619512   -3.561660    2.062268
H      0.993495   -3.827622    1.111407
H      0.526106   -2.784778    2.482615
H      2.764710   -2.108402    2.322835
H      4.833973   -0.937363    2.297125
H      6.198093    0.979329    1.596582
H      4.968810    3.565220   -1.542753
H      5.322807    1.959997   -2.205660
H      2.896686    2.238687   -1.923625
H      3.104584    2.778739   -0.262402
H      3.501819   -1.394015   -1.385070
H      3.141354   -0.127456   -2.561533
H      4.772772   -0.307522   -1.925407
H      1.753362    1.136068    0.843001
H      1.046526    0.259136   -1.968434
H      0.701103    1.757711   -1.133758
H     -0.853117    0.646618    0.391259
H     -1.299130    0.379596   -1.289032
H     -0.420192   -3.221363   -1.534132
H      0.633427   -1.941584   -2.096207
H     -1.103089   -1.809421   -2.356527
