57

C     -4.380744    2.329694   -4.686764
C     -3.836929    1.074333   -4.058455
O     -3.592139    0.070821   -4.727030
C     -3.582887    1.031726   -2.592022
C     -3.806634    2.047414   -1.744603
C     -3.535230    1.960198   -0.268068
C     -2.505302    2.986776    0.216464
C     -1.108041    2.749530   -0.365813
C     -0.054761    3.720667    0.169807
C      0.249829    3.641891    1.670539
C      0.842090    2.305581    2.136634
C     -0.204048    1.352786    2.722820
C      0.403777    0.084766    3.332398
C      1.191909   -0.810575    2.369763
C      0.351339   -1.334903    1.202366
C      1.115799   -2.295209    0.280757
C      0.999731   -3.776517    0.664255
C      1.752191   -4.176706    1.906859
C      3.153844   -4.170215    1.924585
C      3.849696   -4.540911    3.076323
C      3.152382   -4.925016    4.219891
C      1.759048   -4.940748    4.212187
C      1.061500   -4.570379    3.061150
H     -4.494345    2.173922   -5.763984
H     -5.363411    2.564425   -4.269685
H     -3.685942    3.159407   -4.533132
H     -3.184101    0.083491   -2.242507
H     -4.209134    2.994276   -2.094855
H     -4.480778    2.135542    0.259382
H     -3.204843    0.952346    0.012361
H     -2.840879    4.000183   -0.037107
H     -2.470051    2.932217    1.309799
H     -0.791023    1.716800   -0.190802
H     -1.147718    2.873497   -1.455079
H     -0.369021    4.745660   -0.064584
H      0.878009    3.555611   -0.384471
H      0.994376    4.421955    1.878597
H     -0.632258    3.909684    2.262154
H      1.388223    1.830420    1.314763
H      1.579481    2.518157    2.921392
H     -0.946731    1.077601    1.969758
H     -0.754293    1.874485    3.516189
H      1.066453    0.371759    4.158512
H     -0.405562   -0.505584    3.780214
H      2.064354   -0.270790    1.984429
H      1.586802   -1.646844    2.953221
H      0.038058   -0.480086    0.592193
H     -0.565102   -1.808950    1.572663
H      2.164771   -1.989362    0.191367
H      0.681525   -2.196271   -0.723016
H      1.382612   -4.385557   -0.165481
H     -0.059528   -4.047176    0.759516
H      3.712047   -3.875986    1.038776
H      4.936355   -4.530898    3.080205
H      3.694627   -5.213773    5.116168
H      1.214344   -5.241750    5.103057
H     -0.025813   -4.586491    3.072960
