33

C     -4.602543    0.818903    0.720514
O     -3.554247   -0.067333    1.110264
C     -2.928281    0.307695    2.251591
O     -3.228893    1.215410    3.006790
C     -1.871207   -0.672667    2.534425
C     -2.061946   -1.495269    3.654952
C     -1.126128   -2.480220    3.964104
C     -0.001985   -2.642833    3.155962
C      0.198549   -1.811205    2.048483
O      1.341258   -2.057341    1.325946
C      1.590126   -1.289327    0.216968
C      2.737037   -1.611792   -0.515070
C      3.085366   -0.873316   -1.654783
C      4.296785   -1.241512   -2.459710
C      2.257739    0.179968   -2.064214
C      1.117325    0.501330   -1.331421
O      0.368024    1.552002   -1.787877
C      0.781007   -0.234493   -0.190926
C     -0.415198    0.074195    0.603611
O     -1.090603    1.054036    0.312212
C     -0.726803   -0.811300    1.739965
H     -4.221462    1.837318    0.593741
H     -5.412539    0.797084    1.456183
H     -4.996948    0.475967   -0.239978
H     -2.944349   -1.370769    4.280645
H     -1.274703   -3.122358    4.829468
H      0.725497   -3.416385    3.393413
H      3.361440   -2.442379   -0.191829
H      4.725408   -0.359091   -2.946335
H      4.027388   -1.973580   -3.227154
H      5.075466   -1.669407   -1.819609
H      2.497307    0.758982   -2.953624
H     -0.373790    1.689097   -1.155077
