55

C     -3.595144    0.186989   -3.108107
C     -3.146321    1.438192   -2.908784
C     -3.695520    2.614349   -3.658924
C     -2.079613    1.764196   -1.917812
O     -1.722613    2.906935   -1.677496
O     -1.569442    0.638382   -1.359184
C     -0.532980    0.792828   -0.345332
C     -0.904721   -0.129837    0.848563
C     -2.173919    0.319942    1.498219
C     -2.338196    1.270866    2.424939
C     -3.291817   -0.495355    0.976647
O     -4.479050   -0.298217    1.148092
O     -2.748901   -1.511247    0.252492
C     -1.318002   -1.546850    0.431070
C     -1.016523   -2.669336    1.444183
C      0.465951   -2.852910    1.814204
C      0.643634   -4.093384    2.695332
C      1.345934   -2.966711    0.587997
C      2.173591   -2.028793    0.098654
C      2.318925   -0.691913    0.732587
O      2.644204   -0.598699    1.917956
C      2.084211    0.572257   -0.116589
C      3.390680    0.843869   -0.873313
O      1.906129    1.675472    0.790334
C      0.829405    0.468473   -1.033407
O      0.953861    1.426582   -2.127832
C      1.329672    0.938197   -3.338166
C      1.304547    2.027248   -4.364969
O      1.658472   -0.219522   -3.555583
H     -3.215238   -0.667141   -2.555816
H     -4.381297   -0.019469   -3.828006
H     -4.142494    3.336678   -2.967831
H     -4.470409    2.318122   -4.374104
H     -2.900581    3.114674   -4.222032
H     -0.515110    1.833155    0.003899
H     -0.097589   -0.125417    1.582360
H     -3.323131    1.499518    2.825063
H     -1.499865    1.851592    2.796276
H     -0.888978   -1.822229   -0.537569
H     -1.596615   -2.502151    2.362058
H     -1.414353   -3.607745    1.032077
H      0.762713   -2.000526    2.430817
H      0.039311   -4.010929    3.605271
H      1.689760   -4.210977    2.999528
H      0.339754   -5.007170    2.172182
H      1.275444   -3.907511    0.040322
H      2.727221   -2.194729   -0.820162
H      3.376711    1.826004   -1.358354
H      4.242325    0.863590   -0.181836
H      3.596869    0.075776   -1.624871
H      2.530607    1.531082    1.531686
H      0.748546   -0.531931   -1.469059
H      1.568302    1.610698   -5.341211
H      2.032928    2.798822   -4.103808
H      0.299533    2.452074   -4.429925
