43

C      2.157570    2.458027    7.727138
C      2.579647    1.275631    7.253058
C      1.772569    0.014720    7.096275
O      0.510309    0.134157    7.735893
C      1.569504   -0.273315    5.676020
C      1.407947   -0.516772    4.511323
C      1.205640   -0.828834    3.017671
C      1.046270   -1.071577    1.852550
C      0.846867   -1.356428    0.431372
O      2.101314   -1.653894   -0.168517
C     -0.028909   -2.563149    0.265677
C     -1.233164   -2.636657   -0.327890
C     -2.017799   -1.505547   -0.931133
C     -1.951552   -1.544188   -2.458588
C     -2.807615   -0.468199   -3.134285
C     -2.471842    0.983582   -2.773940
C     -1.030863    1.377865   -3.107743
C     -0.704962    2.832097   -2.756902
C     -1.458613    3.846998   -3.602453
H      1.128462    2.621200    8.032741
H      2.834813    3.304659    7.787508
H      3.619336    1.196068    6.938463
H      2.306897   -0.813439    7.574692
H      0.698936    0.346775    8.663879
H      0.447172   -0.473747   -0.074561
H      1.905449   -1.934899   -1.077329
H      0.389059   -3.485601    0.669687
H     -1.718347   -3.611972   -0.368791
H     -3.060060   -1.596374   -0.601763
H     -1.663449   -0.542471   -0.553492
H     -0.910474   -1.456436   -2.791881
H     -2.299949   -2.523832   -2.811745
H     -2.720983   -0.591034   -4.221199
H     -3.861438   -0.649454   -2.888154
H     -3.165977    1.626736   -3.327039
H     -2.669466    1.162083   -1.710937
H     -0.337081    0.740780   -2.547710
H     -0.835296    1.202926   -4.172500
H     -0.910302    3.015424   -1.695811
H      0.370350    2.990274   -2.903060
H     -2.533316    3.819471   -3.401241
H     -1.300428    3.664475   -4.670003
H     -1.106468    4.858665   -3.376282
