85

C      2.622777   -0.570581    4.425640
O      2.870890   -1.137937    3.138404
C      2.175161   -2.282580    2.893013
O      1.378763   -2.801569    3.661241
C      2.496930   -2.803665    1.509976
C      1.778048   -1.996841    0.394713
C      2.500944   -2.070906   -1.002297
C      4.017306   -1.755027   -0.873298
C      2.418511   -3.489075   -1.613797
C      1.854844   -1.010401   -1.979281
O      2.498820    0.278347   -1.730213
C      2.549980    1.149378   -2.779450
O      2.038081    0.952990   -3.871558
C      3.346804    2.382415   -2.390912
C      2.602055    3.181596   -1.327984
C      3.632616    3.249793   -3.614474
C      0.301008   -0.864827   -1.843454
O     -0.350995   -0.570234   -3.090300
C     -0.225934   -1.470574   -4.101284
C     -1.016297   -1.016915   -5.289317
O      0.445355   -2.491899   -4.066743
C     -0.123500    0.296714   -0.928859
C     -0.540399    0.194069    0.352901
C     -0.564944   -1.151405    1.089648
C     -2.030926   -1.462976    1.442663
C     -2.665264   -0.331942    2.266624
C     -2.566409    1.071900    1.603783
C     -3.511040    1.118487    0.375264
C     -1.087339    1.342866    1.197348
C     -0.946522    2.738431    0.598795
C     -1.548108    3.814931    1.457502
O     -1.090360    4.952931    1.471478
O     -2.698126    3.513469    2.094258
C     -2.925172    2.189855    2.626619
C     -4.322268    2.112941    3.177608
C     -5.502020    2.727373    2.661264
C     -6.528950    2.382909    3.506955
O     -6.066884    1.605916    4.517696
C     -4.733503    1.454512    4.321149
C      0.201112   -2.274986    0.304046
C     -0.186883   -3.692287    0.767948
C     -0.288457   -2.089339   -1.139713
O     -1.169593   -2.793414   -1.634568
H      3.240939    0.325820    4.525435
H      2.901756   -1.274215    5.216166
H      1.571771   -0.278913    4.517356
H      2.278158   -3.874473    1.469195
H      3.586148   -2.742523    1.427412
H      1.899122   -0.946072    0.697085
H      4.576709   -2.588894   -0.436181
H      4.462544   -1.569938   -1.858379
H      4.195412   -0.871037   -0.251106
H      1.400276   -3.810991   -1.836445
H      2.976228   -3.535912   -2.556870
H      2.856979   -4.235617   -0.942509
H      2.147736   -1.301255   -2.993409
H      4.309106    2.039910   -1.990704
H      2.458995    2.588158   -0.418706
H      3.159217    4.083118   -1.053002
H      1.610943    3.485571   -1.682580
H      2.706358    3.624275   -4.064456
H      4.252449    4.111366   -3.345166
H      4.165556    2.677724   -4.381865
H     -0.608578   -0.076201   -5.667447
H     -0.949856   -1.771387   -6.078359
H     -2.066910   -0.898038   -5.012448
H     -0.121802    1.262847   -1.428265
H     -0.040085   -1.008922    2.042992
H     -2.091050   -2.376942    2.044041
H     -2.622302   -1.639877    0.536663
H     -2.167711   -0.306377    3.245667
H     -3.712497   -0.594434    2.459014
H     -3.167333    0.468199   -0.435143
H     -3.604520    2.128737   -0.035646
H     -4.520130    0.783504    0.639495
H     -0.481109    1.347129    2.117479
H     -1.414080    2.817872   -0.388675
H      0.118591    2.970515    0.482171
H     -2.247837    2.107058    3.489726
H     -5.586214    3.349875    1.780766
H     -7.587203    2.602905    3.530948
H     -4.223267    0.858566    5.065679
H     -1.234042   -3.929569    0.547777
H     -0.059137   -3.822738    1.845019
H      0.406933   -4.456080    0.255355
