101

C      2.139192    0.293621   -6.636684
C      0.806793    0.564071   -5.945227
C      0.405603    2.063129   -5.961588
C     -0.215776    2.449069   -4.586194
C      0.440212    3.675982   -3.932166
C      1.911000    3.508092   -3.481442
C      2.449764    4.892251   -3.090263
C      2.155050    2.358490   -2.462231
C      3.666200    2.094130   -2.191614
C      3.760553    1.443284   -0.803673
C      2.313810    1.133932   -0.444669
C      1.981905    0.824778    1.020945
C      2.836645   -0.342508    1.540073
C      2.286354   -1.011557    2.758902
C      1.063153   -0.781672    3.265940
C      0.530753   -1.606264    4.412810
C     -0.642590   -2.494749    3.957561
O     -1.545876   -2.601672    5.066274
C     -2.318133   -3.804692    5.072860
O     -3.622996   -3.459262    5.552327
C     -4.509386   -4.574184    5.639053
C     -5.898464   -4.068213    6.049432
O     -6.863290   -5.115263    6.034483
C     -3.965713   -5.600491    6.645225
O     -4.803397   -6.759444    6.761362
C     -2.565965   -6.040546    6.215854
O     -1.989410   -6.906112    7.207476
C     -1.643916   -4.840231    6.000111
O     -0.406130   -5.325267    5.453304
C     -1.387833   -1.906941    2.742779
C     -1.371005   -0.374881    2.768412
C      0.070771    0.221471    2.661350
C      0.110246    1.512360    3.513781
C      0.459193    0.511860    1.158285
C     -0.408038    1.600745    0.470648
C      0.035483    1.932858   -0.965958
C      1.520080    2.327865   -1.036662
C      1.743039    3.648861   -0.270169
C     -0.576044    2.410594   -7.131136
C     -0.062590    1.974711   -8.507593
C     -0.881187    3.914857   -7.193527
H      2.376610   -0.773966   -6.585266
H      2.948764    0.839771   -6.141119
H      2.130278    0.581918   -7.689520
H      0.019359   -0.052304   -6.393765
H      0.924212    0.202823   -4.917142
H      1.314965    2.655006   -6.120449
H     -1.285911    2.659856   -4.703962
H     -0.187243    1.612258   -3.883866
H      0.383584    4.511277   -4.641658
H     -0.167290    3.984843   -3.074888
H      2.490972    3.226502   -4.370860
H      3.468042    4.858034   -2.698794
H      1.812521    5.394920   -2.359579
H      2.476665    5.541095   -3.974274
H      1.806397    1.447637   -2.970739
H      4.068125    1.424178   -2.960836
H      4.279261    2.997969   -2.206772
H      4.210736    2.137758   -0.085431
H      4.382809    0.543003   -0.828700
H      2.045677    0.229263   -1.016891
H      2.229841    1.698538    1.632778
H      3.847304    0.021125    1.761580
H      2.941278   -1.111023    0.763769
H      2.925538   -1.767694    3.210876
H      1.308578   -2.246381    4.848481
H      0.223207   -0.941379    5.229788
H     -0.254017   -3.484968    3.690725
H     -2.416564   -4.200430    4.053675
H     -4.606670   -5.045123    4.651292
H     -6.232150   -3.289679    5.354939
H     -5.878741   -3.612982    7.046038
H     -6.606281   -5.747681    6.735131
H     -3.906031   -5.156301    7.646495
H     -4.962346   -7.113402    5.864973
H     -2.621982   -6.643910    5.301004
H     -2.714103   -7.483586    7.520774
H     -1.397936   -4.373909    6.962274
H     -0.108658   -6.016336    6.078777
H     -2.428238   -2.249767    2.720730
H     -0.914040   -2.255035    1.816729
H     -1.847593   -0.049587    3.703712
H     -2.019535   -0.002493    1.971180
H     -0.659271    2.225633    3.201564
H      1.080354    2.015837    3.462046
H     -0.077093    1.300037    4.573220
H      0.276080   -0.416435    0.594072
H     -0.404264    2.523348    1.058328
H     -1.452412    1.276821    0.421645
H     -0.602452    2.735684   -1.347512
H     -0.153473    1.055099   -1.596368
H      2.760035    4.034786   -0.387002
H      1.045829    4.417217   -0.618146
H      1.570237    3.552685    0.804805
H     -1.524150    1.884776   -6.955866
H      0.919048    2.410501   -8.720775
H     -0.749279    2.295681   -9.298995
H      0.011704    0.886158   -8.582382
H      0.038171    4.498848   -7.309483
H     -1.397406    4.264070   -6.295102
H     -1.534994    4.144934   -8.042146
