36

O      1.138052   -3.710350   -1.523411
C      1.229540   -2.491004   -1.402187
O      0.341772   -1.784856   -0.639989
C      0.401366   -0.377907   -0.560461
C     -0.378671    0.254386    0.477205
C     -1.022185   -0.399997    1.456654
C     -1.847752    0.196227    2.566501
C     -2.297665    1.655647    2.441473
C     -3.266100    1.977683    1.294622
C     -4.619395    1.264807    1.376106
C     -4.690879    0.008684    0.519871
C      0.996629    0.423739   -1.672927
C      1.893310   -0.399645   -2.534555
O      2.669468    0.173386   -3.521460
C      2.014530    1.190085   -4.274907
C      2.372956   -1.704331   -1.999969
H     -0.413164    1.340270    0.437488
H     -0.956593   -1.487624    1.495778
H     -1.260264    0.100381    3.488929
H     -2.729920   -0.436092    2.716749
H     -2.778267    1.942744    3.386035
H     -1.416748    2.303386    2.350199
H     -2.796681    1.803837    0.320888
H     -3.458461    3.057759    1.343947
H     -5.392919    1.952673    1.012256
H     -4.876018    1.028167    2.414692
H     -3.979985   -0.752840    0.847086
H     -5.694053   -0.426157    0.576414
H     -4.484803    0.239576   -0.530334
H      1.570627    1.258190   -1.253250
H      0.183344    0.842063   -2.276315
H      1.059178    0.831119   -4.672280
H      2.658926    1.452250   -5.119114
H      1.867857    2.089756   -3.669129
H      2.805258   -2.296719   -2.813854
H      3.139514   -1.557842   -1.232446
