38

C     -1.789782    3.931773    0.937287
C     -1.596999    2.815609    0.228511
C     -1.568182    2.773531   -1.261444
O     -1.960888    3.635764   -2.022658
O     -1.045377    1.557025   -1.616804
C     -0.406224    1.004834   -0.459675
C     -1.344053    1.421402    0.663287
C     -0.774280    1.095938    2.030950
C     -0.513631   -0.416958    2.115939
C      0.359065   -0.969512    0.946935
C      1.808102   -0.442149    1.161780
C     -0.244565   -0.530943   -0.446198
C      0.505472   -1.178030   -1.611281
C      0.460349   -0.520988   -2.963484
C      1.143579   -2.355058   -1.453959
C      1.210340   -3.119792   -0.163585
C      0.358483   -2.523566    0.969562
O      0.828599   -3.003868    2.229330
H     -1.955856    4.884627    0.440389
H     -1.795604    3.924751    2.021685
H      0.581369    1.481295   -0.388584
H     -2.303869    0.890875    0.560579
H     -1.483038    1.385058    2.815982
H      0.145799    1.660108    2.219382
H     -1.482979   -0.933494    2.113379
H     -0.049024   -0.641556    3.083992
H      2.218159   -0.803241    2.111984
H      2.495998   -0.758995    0.372871
H      1.856368    0.649498    1.194908
H     -1.262735   -0.944839   -0.527288
H      0.969084   -1.118724   -3.727936
H      0.956454    0.453932   -2.935573
H     -0.575583   -0.393329   -3.292524
H      1.659528   -2.810555   -2.297417
H      2.259372   -3.189814    0.150675
H      0.888435   -4.153769   -0.338753
H     -0.674506   -2.880128    0.861171
H      0.797724   -3.975947    2.202975
